**    1000000,  0.0            ,  0.0            
**
** ABAQUS Input Deck Generated by HyperMesh Version  : 5.0
** Generated using HyperMesh-Abaqus Template Version : 5.0-1
**
**   Template:  ABAQUS/STANDARD 2D
**
*NODE, NSET=all_nodes
 9000000,  0.0            ,  1.0            
    1526,  0.0            ,  -0.05          
    1527,  0.0            ,  -0.075         
    1528,  0.0            ,  -0.1           
    1529,  0.0            ,  -0.125         
    1530,  0.0            ,  -0.15          
    1531,  0.0            ,  -0.175         
    1532,  0.0            ,  -0.2           
    1533,  0.0            ,  -0.225         
    1534,  0.0            ,  -0.25          
    1535,  0.0            ,  -0.275         
    1536,  0.0            ,  -0.3           
    1537,  0.0            ,  -0.325         
    1538,  0.0            ,  -0.35          
    1539,  0.0            ,  -0.375         
    1540,  0.0            ,  -0.4           
    1541,  0.0            ,  -0.425         
    1542,  0.0            ,  -0.45          
    1543,  0.0            ,  -0.475         
    1544,  0.0            ,  -0.5           
    1545,  0.025          ,  -0.5           
    1546,  0.05           ,  -0.5           
    1547,  0.075          ,  -0.5           
    1548,  0.1            ,  -0.5           
    1549,  0.125          ,  -0.5           
    1550,  0.15           ,  -0.5           
    1551,  0.175          ,  -0.5           
    1552,  0.2            ,  -0.5           
    1553,  0.225          ,  -0.5           
    1554,  0.25           ,  -0.5           
    1555,  0.275          ,  -0.5           
    1556,  0.3            ,  -0.5           
    1557,  0.325          ,  -0.5           
    1558,  0.35           ,  -0.5           
    1559,  0.375          ,  -0.5           
    1560,  0.4            ,  -0.5           
    1561,  0.425          ,  -0.5           
    1562,  0.45           ,  -0.5           
    1563,  0.475          ,  -0.5           
    1564,  0.5            ,  -0.5           
    1565,  0.5            ,  -0.475         
    1566,  0.5            ,  -0.45          
    1567,  0.5            ,  -0.425         
    1568,  0.5            ,  -0.4           
    1569,  0.5            ,  -0.375         
    1570,  0.5            ,  -0.35          
    1571,  0.5            ,  -0.325         
    1572,  0.5            ,  -0.3           
    1573,  0.5            ,  -0.275         
    1574,  0.5            ,  -0.25          
    1575,  0.5            ,  -0.225         
    1576,  0.5            ,  -0.2           
    1577,  0.5            ,  -0.175         
    1578,  0.5            ,  -0.15          
    1579,  0.5            ,  -0.125         
    1580,  0.5            ,  -0.1           
    1581,  0.5            ,  -0.075         
    1582,  0.5            ,  -0.05          
    1583,  0.5            ,  -0.025         
    1584,  0.5            ,  0.0            
    1585,  0.475          ,  0.0            
    1604,  0.2499999999999,  -0.475         
    1605,  0.2499999999999,  -0.45          
    1606,  0.2499999999999,  -0.425         
    1607,  0.2499999999999,  -0.4           
    1608,  0.2499999999999,  -0.375         
    1609,  0.2499999999999,  -0.35          
    1610,  0.2499999999999,  -0.325         
    1611,  0.2499999999999,  -0.3           
    1612,  0.2499999999999,  -0.275         
    1613,  0.2499999999999,  -0.25          
    1614,  0.2499999999999,  -0.225         
    1615,  0.2499999999999,  -0.2           
    1616,  0.2499999999999,  -0.175         
    1617,  0.2499999999999,  -0.15          
    1618,  0.2499999999999,  -0.125         
    1619,  0.2499999999999,  -0.1           
    1620,  0.2499999999999,  -0.075         
    1621,  0.2499999999999,  -0.05          
    1623,  0.2249999999999,  -0.25          
    1624,  0.1999999999999,  -0.25          
    1625,  0.1749999999999,  -0.25          
    1626,  0.1499999999999,  -0.25          
    1627,  0.1249999999999,  -0.25          
    1628,  0.0999999999999,  -0.25          
    1629,  0.075          ,  -0.25          
    1630,  0.05           ,  -0.25          
    1631,  0.025          ,  -0.25          
    1632,  0.2249999999999,  -0.375         
    1633,  0.1999999999999,  -0.375         
    1634,  0.1749999999999,  -0.375         
    1635,  0.1499999999999,  -0.375         
    1636,  0.1249999999999,  -0.375         
    1637,  0.1            ,  -0.375         
    1638,  0.075          ,  -0.375         
    1639,  0.05           ,  -0.375         
    1640,  0.025          ,  -0.375         
    1641,  0.1249999999999,  -0.4           
    1642,  0.1249999999999,  -0.425         
    1643,  0.1249999999999,  -0.45          
    1644,  0.1249999999999,  -0.475         
    1645,  0.1499999999999,  -0.425         
    1646,  0.1749999999999,  -0.425         
    1647,  0.1999999999999,  -0.425         
    1648,  0.2249999999999,  -0.425         
    1649,  0.1749999999999,  -0.4           
    1650,  0.1499999999999,  -0.4           
    1651,  0.1999999999999,  -0.4           
    1652,  0.2249999999999,  -0.4           
    1653,  0.1749999999999,  -0.475         
    1654,  0.1749999999999,  -0.45          
    1655,  0.1499999999999,  -0.475         
    1656,  0.1499999999999,  -0.45          
    1657,  0.2249999999999,  -0.475         
    1658,  0.1999999999999,  -0.475         
    1659,  0.2249999999999,  -0.45          
    1660,  0.1999999999999,  -0.45          
    1661,  0.025          ,  -0.425         
    1662,  0.05           ,  -0.425         
    1663,  0.075          ,  -0.425         
    1664,  0.1            ,  -0.425         
    1665,  0.05           ,  -0.4           
    1666,  0.025          ,  -0.4           
    1667,  0.075          ,  -0.4           
    1668,  0.1            ,  -0.4           
    1669,  0.05           ,  -0.475         
    1670,  0.05           ,  -0.45          
    1671,  0.025          ,  -0.475         
    1672,  0.025          ,  -0.45          
    1673,  0.1            ,  -0.475         
    1674,  0.075          ,  -0.475         
    1675,  0.1            ,  -0.45          
    1676,  0.075          ,  -0.45          
    1677,  0.1249999999999,  -0.275         
    1678,  0.1249999999999,  -0.3           
    1679,  0.1249999999999,  -0.325         
    1680,  0.1249999999999,  -0.35          
    1681,  0.1999999999999,  -0.275         
    1682,  0.1999999999999,  -0.3           
    1683,  0.1999999999999,  -0.325         
    1684,  0.1999999999999,  -0.35          
    1685,  0.2249999999999,  -0.3           
    1686,  0.2249999999999,  -0.275         
    1687,  0.2249999999999,  -0.325         
    1688,  0.2249999999999,  -0.35          
    1689,  0.1499999999999,  -0.3           
    1690,  0.1749999999999,  -0.3           
    1691,  0.1499999999999,  -0.275         
    1692,  0.1749999999999,  -0.275         
    1693,  0.1499999999999,  -0.35          
    1694,  0.1499999999999,  -0.325         
    1695,  0.1749999999999,  -0.35          
    1696,  0.1749999999999,  -0.325         
    1697,  0.075          ,  -0.275         
    1698,  0.075          ,  -0.3           
    1699,  0.075          ,  -0.325         
    1700,  0.075          ,  -0.35          
    1701,  0.1            ,  -0.3           
    1702,  0.1            ,  -0.275         
    1703,  0.1            ,  -0.325         
    1704,  0.1            ,  -0.35          
    1705,  0.025          ,  -0.3           
    1706,  0.05           ,  -0.3           
    1707,  0.025          ,  -0.275         
    1708,  0.05           ,  -0.275         
    1709,  0.025          ,  -0.35          
    1710,  0.025          ,  -0.325         
    1711,  0.05           ,  -0.35          
    1712,  0.05           ,  -0.325         
    1714,  0.1249999999999,  -0.05          
    1715,  0.1249999999999,  -0.075         
    1716,  0.1249999999999,  -0.1           
    1717,  0.1249999999999,  -0.125         
    1718,  0.1249999999999,  -0.15          
    1719,  0.1249999999999,  -0.175         
    1720,  0.1249999999999,  -0.2           
    1721,  0.1249999999999,  -0.225         
    1722,  0.1499999999999,  -0.125         
    1723,  0.1749999999999,  -0.125         
    1724,  0.1999999999999,  -0.125         
    1725,  0.2249999999999,  -0.125         
    1726,  0.1749999999999,  -0.1           
    1727,  0.1749999999999,  -0.075         
    1728,  0.1749999999999,  -0.05          
    1730,  0.1499999999999,  -0.075         
    1731,  0.1499999999999,  -0.1           
    1732,  0.1499999999999,  -0.05          
    1734,  0.2249999999999,  -0.075         
    1735,  0.1999999999999,  -0.075         
    1736,  0.2249999999999,  -0.1           
    1737,  0.1999999999999,  -0.1           
    1739,  0.2249999999999,  -0.05          
    1741,  0.1999999999999,  -0.05          
    1742,  0.1749999999999,  -0.225         
    1743,  0.1749999999999,  -0.2           
    1744,  0.1749999999999,  -0.175         
    1745,  0.1749999999999,  -0.15          
    1746,  0.1499999999999,  -0.2           
    1747,  0.1499999999999,  -0.225         
    1748,  0.1499999999999,  -0.175         
    1749,  0.1499999999999,  -0.15          
    1750,  0.2249999999999,  -0.2           
    1751,  0.1999999999999,  -0.2           
    1752,  0.2249999999999,  -0.225         
    1753,  0.1999999999999,  -0.225         
    1754,  0.2249999999999,  -0.15          
    1755,  0.2249999999999,  -0.175         
    1756,  0.1999999999999,  -0.15          
    1757,  0.1999999999999,  -0.175         
    1758,  0.0249999999999,  -0.125         
    1759,  0.0499999999999,  -0.125         
    1760,  0.0749999999999,  -0.125         
    1761,  0.0999999999999,  -0.125         
    1762,  0.0499999999999,  -0.1           
    1763,  0.0499999999999,  -0.075         
    1764,  0.0499999999999,  -0.05          
    1766,  0.0249999999999,  -0.075         
    1767,  0.0249999999999,  -0.1           
    1768,  0.0249999999999,  -0.05          
    1770,  0.0999999999999,  -0.075         
    1771,  0.0749999999999,  -0.075         
    1772,  0.0999999999999,  -0.1           
    1773,  0.0749999999999,  -0.1           
    1775,  0.0999999999999,  -0.05          
    1777,  0.0749999999999,  -0.05          
    1778,  0.05           ,  -0.225         
    1779,  0.0499999999999,  -0.2           
    1780,  0.0499999999999,  -0.175         
    1781,  0.0499999999999,  -0.15          
    1782,  0.0249999999999,  -0.2           
    1783,  0.025          ,  -0.225         
    1784,  0.0249999999999,  -0.175         
    1785,  0.0249999999999,  -0.15          
    1786,  0.0999999999999,  -0.2           
    1787,  0.0749999999999,  -0.2           
    1788,  0.0999999999999,  -0.225         
    1789,  0.0749999999999,  -0.225         
    1790,  0.0999999999999,  -0.15          
    1791,  0.0999999999999,  -0.175         
    1792,  0.0749999999999,  -0.15          
    1793,  0.0749999999999,  -0.175         
    1794,  0.4749999999999,  -0.25          
    1795,  0.4499999999999,  -0.25          
    1796,  0.4249999999999,  -0.25          
    1797,  0.3999999999999,  -0.25          
    1798,  0.3749999999999,  -0.25          
    1799,  0.3499999999999,  -0.25          
    1800,  0.3249999999999,  -0.25          
    1801,  0.2999999999999,  -0.25          
    1802,  0.2749999999999,  -0.25          
    1803,  0.3749999999999,  -0.275         
    1804,  0.3749999999999,  -0.3           
    1805,  0.3749999999999,  -0.325         
    1806,  0.3749999999999,  -0.35          
    1807,  0.3749999999999,  -0.375         
    1808,  0.3749999999999,  -0.4           
    1809,  0.3749999999999,  -0.425         
    1810,  0.3749999999999,  -0.45          
    1811,  0.3749999999999,  -0.475         
    1812,  0.3999999999999,  -0.375         
    1813,  0.4249999999999,  -0.375         
    1814,  0.4499999999999,  -0.375         
    1815,  0.4749999999999,  -0.375         
    1816,  0.4249999999999,  -0.35          
    1817,  0.4249999999999,  -0.325         
    1818,  0.4249999999999,  -0.3           
    1819,  0.4249999999999,  -0.275         
    1820,  0.3999999999999,  -0.325         
    1821,  0.3999999999999,  -0.35          
    1822,  0.3999999999999,  -0.3           
    1823,  0.3999999999999,  -0.275         
    1824,  0.4749999999999,  -0.325         
    1825,  0.4499999999999,  -0.325         
    1826,  0.4749999999999,  -0.35          
    1827,  0.4499999999999,  -0.35          
    1828,  0.4749999999999,  -0.275         
    1829,  0.4749999999999,  -0.3           
    1830,  0.4499999999999,  -0.275         
    1831,  0.4499999999999,  -0.3           
    1832,  0.4249999999999,  -0.475         
    1833,  0.4249999999999,  -0.45          
    1834,  0.4249999999999,  -0.425         
    1835,  0.4249999999999,  -0.4           
    1836,  0.3999999999999,  -0.45          
    1837,  0.3999999999999,  -0.475         
    1838,  0.3999999999999,  -0.425         
    1839,  0.3999999999999,  -0.4           
    1840,  0.4749999999999,  -0.45          
    1841,  0.4499999999999,  -0.45          
    1842,  0.4749999999999,  -0.475         
    1843,  0.4499999999999,  -0.475         
    1844,  0.4749999999999,  -0.4           
    1845,  0.4749999999999,  -0.425         
    1846,  0.4499999999999,  -0.4           
    1847,  0.4499999999999,  -0.425         
    1848,  0.2749999999999,  -0.375         
    1849,  0.2999999999999,  -0.375         
    1850,  0.3249999999999,  -0.375         
    1851,  0.3499999999999,  -0.375         
    1852,  0.2999999999999,  -0.35          
    1853,  0.2999999999999,  -0.325         
    1854,  0.2999999999999,  -0.3           
    1855,  0.2999999999999,  -0.275         
    1856,  0.2749999999999,  -0.325         
    1857,  0.2749999999999,  -0.35          
    1858,  0.2749999999999,  -0.3           
    1859,  0.2749999999999,  -0.275         
    1860,  0.3499999999999,  -0.325         
    1861,  0.3249999999999,  -0.325         
    1862,  0.3499999999999,  -0.35          
    1863,  0.3249999999999,  -0.35          
    1864,  0.3499999999999,  -0.275         
    1865,  0.3499999999999,  -0.3           
    1866,  0.3249999999999,  -0.275         
    1867,  0.3249999999999,  -0.3           
    1868,  0.2749999999999,  -0.425         
    1869,  0.2999999999999,  -0.425         
    1870,  0.3249999999999,  -0.425         
    1871,  0.3499999999999,  -0.425         
    1872,  0.2999999999999,  -0.4           
    1873,  0.2749999999999,  -0.4           
    1874,  0.3249999999999,  -0.4           
    1875,  0.3499999999999,  -0.4           
    1876,  0.2999999999999,  -0.475         
    1877,  0.2999999999999,  -0.45          
    1878,  0.2749999999999,  -0.475         
    1879,  0.2749999999999,  -0.45          
    1880,  0.3499999999999,  -0.475         
    1881,  0.3249999999999,  -0.475         
    1882,  0.3499999999999,  -0.45          
    1883,  0.3249999999999,  -0.45          
    1885,  0.3749999999999,  -0.05          
    1886,  0.3749999999999,  -0.075         
    1887,  0.3749999999999,  -0.1           
    1888,  0.3749999999999,  -0.125         
    1889,  0.3749999999999,  -0.15          
    1890,  0.3749999999999,  -0.175         
    1891,  0.3749999999999,  -0.2           
    1892,  0.3749999999999,  -0.225         
    1893,  0.3999999999999,  -0.125         
    1894,  0.4249999999999,  -0.125         
    1895,  0.4499999999999,  -0.125         
    1896,  0.4749999999999,  -0.125         
    1897,  0.4249999999999,  -0.1           
    1898,  0.4249999999999,  -0.075         
    1899,  0.4249999999999,  -0.05          
    1901,  0.3999999999999,  -0.075         
    1902,  0.3999999999999,  -0.1           
    1903,  0.3999999999999,  -0.05          
    1905,  0.4749999999999,  -0.075         
    1906,  0.4499999999999,  -0.075         
    1907,  0.4749999999999,  -0.1           
    1908,  0.4499999999999,  -0.1           
    1909,  0.4749999999999,  -0.025         
    1910,  0.4749999999999,  -0.05          
    1912,  0.4499999999999,  -0.05          
    1913,  0.4249999999999,  -0.225         
    1914,  0.4249999999999,  -0.2           
    1915,  0.4249999999999,  -0.175         
    1916,  0.4249999999999,  -0.15          
    1917,  0.3999999999999,  -0.2           
    1918,  0.3999999999999,  -0.225         
    1919,  0.3999999999999,  -0.175         
    1920,  0.3999999999999,  -0.15          
    1921,  0.4749999999999,  -0.2           
    1922,  0.4499999999999,  -0.2           
    1923,  0.4749999999999,  -0.225         
    1924,  0.4499999999999,  -0.225         
    1925,  0.4749999999999,  -0.15          
    1926,  0.4749999999999,  -0.175         
    1927,  0.4499999999999,  -0.15          
    1928,  0.4499999999999,  -0.175         
    1929,  0.2749999999999,  -0.125         
    1930,  0.2999999999999,  -0.125         
    1931,  0.3249999999999,  -0.125         
    1932,  0.3499999999999,  -0.125         
    1933,  0.2999999999999,  -0.1           
    1934,  0.2999999999999,  -0.075         
    1935,  0.2999999999999,  -0.05          
    1937,  0.2749999999999,  -0.075         
    1938,  0.2749999999999,  -0.1           
    1939,  0.2749999999999,  -0.05          
    1941,  0.3499999999999,  -0.075         
    1942,  0.3249999999999,  -0.075         
    1943,  0.3499999999999,  -0.1           
    1944,  0.3249999999999,  -0.1           
    1946,  0.3499999999999,  -0.05          
    1948,  0.3249999999999,  -0.05          
    1949,  0.2999999999999,  -0.225         
    1950,  0.2999999999999,  -0.2           
    1951,  0.2999999999999,  -0.175         
    1952,  0.2999999999999,  -0.15          
    1953,  0.2749999999999,  -0.2           
    1954,  0.2749999999999,  -0.225         
    1955,  0.2749999999999,  -0.175         
    1956,  0.2749999999999,  -0.15          
    1957,  0.3499999999999,  -0.2           
    1958,  0.3249999999999,  -0.2           
    1959,  0.3499999999999,  -0.225         
    1960,  0.3249999999999,  -0.225         
    1961,  0.3499999999999,  -0.15          
    1962,  0.3499999999999,  -0.175         
    1963,  0.3249999999999,  -0.15          
    1964,  0.3249999999999,  -0.175         
    3091,  0.4499999999999,  -0.0125        
    3092,  0.4624999999999,  -0.0125        
    3093,  0.0124999999999,  -0.025         
    3095,  0.0374999999999,  -0.025         
    3096,  0.0499999999999,  -0.025         
    3097,  0.0624999999999,  -0.025         
    3099,  0.0874999999999,  -0.025         
    3100,  0.0999999999999,  -0.025         
    3101,  0.1124999999999,  -0.025         
    3103,  0.1374999999999,  -0.025         
    3104,  0.1499999999999,  -0.025         
    3105,  0.1624999999999,  -0.025         
    3107,  0.1874999999999,  -0.025         
    3108,  0.1999999999999,  -0.025         
    3109,  0.2124999999999,  -0.025         
    3111,  0.2374999999999,  -0.025         
    3112,  0.2499999999999,  -0.025         
    3113,  0.2624999999999,  -0.025         
    3115,  0.2874999999999,  -0.025         
    3116,  0.2999999999999,  -0.025         
    3117,  0.3124999999999,  -0.025         
    3118,  0.3249999999999,  -0.025         
    3119,  0.3374999999999,  -0.025         
    3120,  0.3499999999999,  -0.025         
    3121,  0.3624999999999,  -0.025         
    3123,  0.3874999999999,  -0.025         
    3124,  0.3999999999999,  -0.025         
    3125,  0.4124999999999,  -0.025         
    3126,  0.4249999999999,  -0.025         
    3127,  0.4374999999999,  -0.025         
    3128,  0.4499999999999,  -0.025         
    3129,  0.4624999999999,  -0.025         
    3130,  0.0124999999999,  -0.0375        
    3132,  0.0374999999999,  -0.0375        
    3133,  0.0499999999999,  -0.0375        
    3134,  0.0624999999999,  -0.0375        
    3136,  0.0874999999999,  -0.0375        
    3137,  0.0999999999999,  -0.0375        
    3138,  0.1124999999999,  -0.0375        
    3140,  0.1374999999999,  -0.0375        
    3141,  0.1499999999999,  -0.0375        
    3142,  0.1624999999999,  -0.0375        
    3144,  0.1874999999999,  -0.0375        
    3145,  0.1999999999999,  -0.0375        
    3146,  0.2124999999999,  -0.0375        
    3148,  0.2374999999999,  -0.0375        
    3149,  0.2499999999999,  -0.0375        
    3150,  0.2624999999999,  -0.0375        
    3152,  0.2874999999999,  -0.0375        
    3153,  0.2999999999999,  -0.0375        
    3154,  0.3124999999999,  -0.0375        
    3156,  0.3374999999999,  -0.0375        
    3157,  0.3499999999999,  -0.0375        
    3158,  0.3624999999999,  -0.0375        
    3160,  0.3874999999999,  -0.0375        
    3161,  0.3999999999999,  -0.0375        
    3162,  0.4124999999999,  -0.0375        
    3164,  0.4374999999999,  -0.0375        
    3165,  0.4499999999999,  -0.0375        
    3166,  0.4624999999999,  -0.0375        
    3245,  0.0            ,  -0.025         
    3247,  0.0            ,  -0.0375        
    3251,  0.00625        ,  -0.00625       
    3252,  0.0125         ,  -0.00625       
    3253,  0.01875        ,  -0.00625       
    3254,  0.025          ,  -0.00625       
    3255,  0.0312499999999,  -0.00625       
    3256,  0.0374999999999,  -0.00625       
    3257,  0.0437499999999,  -0.00625       
    3258,  0.0499999999999,  -0.00625       
    3259,  0.0562499999999,  -0.00625       
    3260,  0.0624999999999,  -0.00625       
    3261,  0.0687499999999,  -0.00625       
    3262,  0.0749999999999,  -0.00625       
    3263,  0.0812499999999,  -0.00625       
    3264,  0.0874999999999,  -0.00625       
    3265,  0.0937499999999,  -0.00625       
    3266,  0.0999999999999,  -0.00625       
    3267,  0.1062499999999,  -0.00625       
    3268,  0.1124999999999,  -0.00625       
    3269,  0.1187499999999,  -0.00625       
    3270,  0.1249999999999,  -0.00625       
    3271,  0.1312499999999,  -0.00625       
    3272,  0.1374999999999,  -0.00625       
    3273,  0.1437499999999,  -0.00625       
    3274,  0.1499999999999,  -0.00625       
    3275,  0.1562499999999,  -0.00625       
    3276,  0.1624999999999,  -0.00625       
    3277,  0.1687499999999,  -0.00625       
    3278,  0.1749999999999,  -0.00625       
    3279,  0.1812499999999,  -0.00625       
    3280,  0.1874999999999,  -0.00625       
    3281,  0.1937499999999,  -0.00625       
    3282,  0.1999999999999,  -0.00625       
    3283,  0.2062499999999,  -0.00625       
    3284,  0.2124999999999,  -0.00625       
    3285,  0.2187499999999,  -0.00625       
    3286,  0.2249999999999,  -0.00625       
    3287,  0.2312499999999,  -0.00625       
    3288,  0.2374999999999,  -0.00625       
    3289,  0.2437499999999,  -0.00625       
    3290,  0.2499999999999,  -0.00625       
    3291,  0.2562499999999,  -0.00625       
    3292,  0.2624999999999,  -0.00625       
    3293,  0.2687499999999,  -0.00625       
    3294,  0.2749999999999,  -0.00625       
    3295,  0.2812499999999,  -0.00625       
    3296,  0.2874999999999,  -0.00625       
    3297,  0.2937499999999,  -0.00625       
    3298,  0.2999999999999,  -0.00625       
    3299,  0.3062499999999,  -0.00625       
    3300,  0.3124999999999,  -0.00625       
    3301,  0.3187499999999,  -0.00625       
    3302,  0.3249999999999,  -0.00625       
    3303,  0.3312499999999,  -0.00625       
    3304,  0.3374999999999,  -0.00625       
    3305,  0.3437499999999,  -0.00625       
    3306,  0.3499999999999,  -0.00625       
    3307,  0.3562499999999,  -0.00625       
    3308,  0.3624999999999,  -0.00625       
    3309,  0.3687499999999,  -0.00625       
    3310,  0.3749999999999,  -0.00625       
    3311,  0.3812499999999,  -0.00625       
    3312,  0.3874999999999,  -0.00625       
    3313,  0.3937499999999,  -0.00625       
    3314,  0.3999999999999,  -0.00625       
    3315,  0.4062499999999,  -0.00625       
    3316,  0.4124999999999,  -0.00625       
    3317,  0.4187499999999,  -0.00625       
    3318,  0.4249999999999,  -0.00625       
    3319,  0.4312499999999,  -0.00625       
    3320,  0.4374999999999,  -0.00625       
    3321,  0.4437499999999,  -0.00625       
    3322,  0.00625        ,  -0.0125        
    3323,  0.0125         ,  -0.0125        
    3324,  0.01875        ,  -0.0125        
    3325,  0.025          ,  -0.0125        
    3326,  0.03125        ,  -0.0125        
    3327,  0.0375         ,  -0.0125        
    3328,  0.0437499999999,  -0.0125        
    3329,  0.0499999999999,  -0.0125        
    3330,  0.0562499999999,  -0.0125        
    3331,  0.0624999999999,  -0.0125        
    3332,  0.0687499999999,  -0.0125        
    3333,  0.0749999999999,  -0.0125        
    3334,  0.0812499999999,  -0.0125        
    3335,  0.0874999999999,  -0.0125        
    3336,  0.0937499999999,  -0.0125        
    3337,  0.0999999999999,  -0.0125        
    3338,  0.1062499999999,  -0.0125        
    3339,  0.1124999999999,  -0.0125        
    3340,  0.1187499999999,  -0.0125        
    3341,  0.1249999999999,  -0.0125        
    3342,  0.1312499999999,  -0.0125        
    3343,  0.1374999999999,  -0.0125        
    3344,  0.1437499999999,  -0.0125        
    3345,  0.1499999999999,  -0.0125        
    3346,  0.1562499999999,  -0.0125        
    3347,  0.1624999999999,  -0.0125        
    3348,  0.1687499999999,  -0.0125        
    3349,  0.1749999999999,  -0.0125        
    3350,  0.1812499999999,  -0.0125        
    3351,  0.1874999999999,  -0.0125        
    3352,  0.1937499999999,  -0.0125        
    3353,  0.1999999999999,  -0.0125        
    3354,  0.2062499999999,  -0.0125        
    3355,  0.2124999999999,  -0.0125        
    3356,  0.2187499999999,  -0.0125        
    3357,  0.2249999999999,  -0.0125        
    3358,  0.2312499999999,  -0.0125        
    3359,  0.2374999999999,  -0.0125        
    3360,  0.2437499999999,  -0.0125        
    3361,  0.2499999999999,  -0.0125        
    3362,  0.2562499999999,  -0.0125        
    3363,  0.2624999999999,  -0.0125        
    3364,  0.2687499999999,  -0.0125        
    3365,  0.2749999999999,  -0.0125        
    3366,  0.2812499999999,  -0.0125        
    3367,  0.2874999999999,  -0.0125        
    3368,  0.2937499999999,  -0.0125        
    3369,  0.2999999999999,  -0.0125        
    3370,  0.3062499999999,  -0.0125        
    3371,  0.3124999999999,  -0.0125        
    3372,  0.3187499999999,  -0.0125        
    3373,  0.3249999999999,  -0.0125        
    3374,  0.3312499999999,  -0.0125        
    3375,  0.3374999999999,  -0.0125        
    3376,  0.3437499999999,  -0.0125        
    3377,  0.3499999999999,  -0.0125        
    3378,  0.3562499999999,  -0.0125        
    3379,  0.3624999999999,  -0.0125        
    3380,  0.3687499999999,  -0.0125        
    3381,  0.3749999999999,  -0.0125        
    3382,  0.3812499999999,  -0.0125        
    3383,  0.3874999999999,  -0.0125        
    3384,  0.3937499999999,  -0.0125        
    3385,  0.3999999999999,  -0.0125        
    3386,  0.4062499999999,  -0.0125        
    3387,  0.4124999999999,  -0.0125        
    3388,  0.4187499999999,  -0.0125        
    3389,  0.4249999999999,  -0.0125        
    3390,  0.4312499999999,  -0.0125        
    3391,  0.4374999999999,  -0.0125        
    3392,  0.4437499999999,  -0.0125        
    3393,  0.00625        ,  -0.01875       
    3394,  0.0125         ,  -0.01875       
    3395,  0.01875        ,  -0.01875       
    3397,  0.03125        ,  -0.01875       
    3398,  0.0375         ,  -0.01875       
    3399,  0.04375        ,  -0.01875       
    3401,  0.05625        ,  -0.01875       
    3402,  0.0625         ,  -0.01875       
    3403,  0.06875        ,  -0.01875       
    3405,  0.08125        ,  -0.01875       
    3406,  0.0874999999999,  -0.01875       
    3407,  0.0937499999999,  -0.01875       
    3409,  0.1062499999999,  -0.01875       
    3410,  0.1124999999999,  -0.01875       
    3411,  0.1187499999999,  -0.01875       
    3413,  0.1312499999999,  -0.01875       
    3414,  0.1374999999999,  -0.01875       
    3415,  0.1437499999999,  -0.01875       
    3417,  0.1562499999999,  -0.01875       
    3418,  0.1624999999999,  -0.01875       
    3419,  0.1687499999999,  -0.01875       
    3421,  0.1812499999999,  -0.01875       
    3422,  0.1874999999999,  -0.01875       
    3423,  0.1937499999999,  -0.01875       
    3425,  0.2062499999999,  -0.01875       
    3426,  0.2124999999999,  -0.01875       
    3427,  0.2187499999999,  -0.01875       
    3429,  0.2312499999999,  -0.01875       
    3430,  0.2374999999999,  -0.01875       
    3431,  0.2437499999999,  -0.01875       
    3433,  0.2562499999999,  -0.01875       
    3434,  0.2624999999999,  -0.01875       
    3435,  0.2687499999999,  -0.01875       
    3437,  0.2812499999999,  -0.01875       
    3438,  0.2874999999999,  -0.01875       
    3439,  0.2937499999999,  -0.01875       
    3441,  0.3062499999999,  -0.01875       
    3442,  0.3124999999999,  -0.01875       
    3443,  0.3187499999999,  -0.01875       
    3445,  0.3312499999999,  -0.01875       
    3446,  0.3374999999999,  -0.01875       
    3447,  0.3437499999999,  -0.01875       
    3449,  0.3562499999999,  -0.01875       
    3450,  0.3624999999999,  -0.01875       
    3451,  0.3687499999999,  -0.01875       
    3453,  0.3812499999999,  -0.01875       
    3454,  0.3874999999999,  -0.01875       
    3455,  0.3937499999999,  -0.01875       
    3457,  0.4062499999999,  -0.01875       
    3458,  0.4124999999999,  -0.01875       
    3459,  0.4187499999999,  -0.01875       
    3461,  0.4312499999999,  -0.01875       
    3462,  0.4374999999999,  -0.01875       
    3463,  0.4437499999999,  -0.01875       
    3464,  0.00625        ,  0.0            
    3465,  0.0125         ,  0.0            
    3466,  0.01875        ,  0.0            
    3467,  0.0249999999999,  0.0            
    3468,  0.0312499999999,  0.0            
    3469,  0.0374999999999,  0.0            
    3470,  0.0437499999999,  0.0            
    3471,  0.0499999999999,  0.0            
    3472,  0.0562499999999,  0.0            
    3473,  0.0624999999999,  0.0            
    3474,  0.0687499999999,  0.0            
    3475,  0.0749999999999,  0.0            
    3476,  0.0812499999999,  0.0            
    3477,  0.0874999999999,  0.0            
    3478,  0.0937499999999,  0.0            
    3479,  0.0999999999999,  0.0            
    3480,  0.1062499999999,  0.0            
    3481,  0.1124999999999,  0.0            
    3482,  0.1187499999999,  0.0            
    3483,  0.1249999999999,  0.0            
    3484,  0.1312499999999,  0.0            
    3485,  0.1374999999999,  0.0            
    3486,  0.1437499999999,  0.0            
    3487,  0.1499999999999,  0.0            
    3488,  0.1562499999999,  0.0            
    3489,  0.1624999999999,  0.0            
    3490,  0.1687499999999,  0.0            
    3491,  0.1749999999999,  0.0            
    3492,  0.1812499999999,  0.0            
    3493,  0.1874999999999,  0.0            
    3494,  0.1937499999999,  0.0            
    3495,  0.1999999999999,  0.0            
    3496,  0.2062499999999,  0.0            
    3497,  0.2124999999999,  0.0            
    3498,  0.2187499999999,  0.0            
    3499,  0.2249999999999,  0.0            
    3500,  0.2312499999999,  0.0            
    3501,  0.2374999999999,  0.0            
    3502,  0.2437499999999,  0.0            
    3503,  0.2499999999999,  0.0            
    3504,  0.2562499999999,  0.0            
    3505,  0.2624999999999,  0.0            
    3506,  0.2687499999999,  0.0            
    3507,  0.2749999999999,  0.0            
    3508,  0.2812499999999,  0.0            
    3509,  0.2874999999999,  0.0            
    3510,  0.2937499999999,  0.0            
    3511,  0.2999999999999,  0.0            
    3512,  0.3062499999999,  0.0            
    3513,  0.3124999999999,  0.0            
    3514,  0.3187499999999,  0.0            
    3515,  0.3249999999999,  0.0            
    3516,  0.3312499999999,  0.0            
    3517,  0.3374999999999,  0.0            
    3518,  0.3437499999999,  0.0            
    3519,  0.3499999999999,  0.0            
    3520,  0.3562499999999,  0.0            
    3521,  0.3624999999999,  0.0            
    3522,  0.3687499999999,  0.0            
    3523,  0.3749999999999,  0.0            
    3524,  0.3812499999999,  0.0            
    3525,  0.3874999999999,  0.0            
    3526,  0.3937499999999,  0.0            
    3527,  0.3999999999999,  0.0            
    3528,  0.4062499999999,  0.0            
    3529,  0.4124999999999,  0.0            
    3530,  0.4187499999999,  0.0            
    3531,  0.4249999999999,  0.0            
    3532,  0.4312499999999,  0.0            
    3533,  0.4374999999999,  0.0            
    3538,  0.025          ,  -0.025         
    3546,  0.075          ,  -0.025         
    3554,  0.125          ,  -0.025         
    3562,  0.175          ,  -0.025         
    3570,  0.225          ,  -0.025         
    3578,  0.275          ,  -0.025         
    3594,  0.375          ,  -0.025         
    1000000,  0.0            ,  0.0            
    3607,  0.4499999999999,  0.0            
    3608,  0.0            ,  -0.00625       
    3610,  0.0            ,  -0.0125        
    4356,  0.0            ,  -0.525         
    4357,  0.0            ,  -0.55          
    4359,  0.0            ,  -0.6           
    4361,  0.05           ,  -0.6           
    4363,  0.1            ,  -0.6           
    4365,  0.15           ,  -0.6           
    4367,  0.2            ,  -0.6           
    4369,  0.25           ,  -0.6           
    4371,  0.3            ,  -0.6           
    4373,  0.35           ,  -0.6           
    4375,  0.4            ,  -0.6           
    4377,  0.45           ,  -0.6           
    4382,  0.5            ,  -0.525         
    4384,  0.25           ,  -0.550000000745
    4388,  0.125          ,  -0.525000000372
    4390,  0.05           ,  -0.550000000745
    4394,  0.025          ,  -0.525000000372
    4395,  0.1            ,  -0.550000000745
    4399,  0.1            ,  -0.525000000372
    4400,  0.075          ,  -0.525000000372
    4403,  0.175          ,  -0.525000000372
    4404,  0.15           ,  -0.550000000745
    4408,  0.2            ,  -0.550000000745
    4411,  0.225          ,  -0.525000000372
    4412,  0.2            ,  -0.525000000372
    4415,  0.375          ,  -0.525000000372
    4417,  0.3            ,  -0.550000000745
    4418,  0.3            ,  -0.525000000372
    4421,  0.275          ,  -0.525000000372
    4422,  0.35           ,  -0.550000000745
    4427,  0.325          ,  -0.525000000372
    4430,  0.425          ,  -0.525000000372
    4431,  0.4            ,  -0.550000000745
    4433,  0.4            ,  -0.525000000372
    4435,  0.45           ,  -0.550000000745
    4438,  0.475          ,  -0.525000000372
    4443,  0.525          ,  -0.5           
    4446,  0.5            ,  -0.55          
    4448,  0.5            ,  -0.6           
    4450,  0.55           ,  -0.6           
    4452,  0.6            ,  -0.6           
    4454,  0.6            ,  -0.55          
    4457,  0.55           ,  -0.550000000745
    4460,  0.525          ,  -0.525000000372
    4486,  0.525          ,  0.0            
    4487,  0.55           ,  0.0            
    4489,  0.6            ,  0.0            
    4491,  0.6            ,  -0.05          
    4493,  0.6            ,  -0.1           
    4495,  0.6            ,  -0.15          
    4497,  0.6            ,  -0.2           
    4499,  0.6            ,  -0.25          
    4501,  0.6            ,  -0.3           
    4503,  0.6            ,  -0.35          
    4505,  0.6            ,  -0.4           
    4507,  0.6            ,  -0.45          
    4509,  0.6            ,  -0.5           
    4511,  0.55           ,  -0.5           
    4514,  0.550000000745 ,  -0.25          
    4518,  0.5250000003725,  -0.125         
    4520,  0.550000000745 ,  -0.05          
    4524,  0.5250000003725,  -0.025         
    4525,  0.550000000745 ,  -0.1           
    4529,  0.5250000003725,  -0.1           
    4530,  0.5250000003725,  -0.075         
    4533,  0.5250000003725,  -0.175         
    4534,  0.550000000745 ,  -0.15          
    4538,  0.550000000745 ,  -0.2           
    4541,  0.5250000003725,  -0.225         
    4542,  0.5250000003725,  -0.2           
    4545,  0.5250000003725,  -0.375         
    4547,  0.550000000745 ,  -0.3           
    4548,  0.5250000003725,  -0.3           
    4551,  0.5250000003725,  -0.275         
    4552,  0.550000000745 ,  -0.35          
    4557,  0.5250000003725,  -0.325         
    4560,  0.5250000003725,  -0.425         
    4561,  0.550000000745 ,  -0.4           
    4563,  0.5250000003725,  -0.4           
    4565,  0.550000000745 ,  -0.45          
    4568,  0.5250000003725,  -0.475         
    4572,  0.0            ,  -0.9           
    4573,  0.0            ,  -0.85          
    4574,  0.0            ,  -0.8           
    4575,  0.0            ,  -0.75          
    4576,  0.0            ,  -0.7           
    4577,  0.0            ,  -0.65          
    4591,  0.6            ,  -0.65          
    4592,  0.6            ,  -0.7           
    4593,  0.6            ,  -0.75          
    4594,  0.6            ,  -0.8           
    4595,  0.6            ,  -0.85          
    4596,  0.6            ,  -0.9           
    4598,  0.6            ,  -1.0           
    4600,  0.5            ,  -1.0           
    4602,  0.4            ,  -1.0           
    4604,  0.3            ,  -1.0           
    4606,  0.2            ,  -1.0           
    4608,  0.1            ,  -1.0           
    4610,  0.3000000119209,  -0.65          
    4611,  0.3000000119209,  -0.7           
    4612,  0.3000000119209,  -0.75          
    4613,  0.3000000119209,  -0.8           
    4614,  0.3000000119209,  -0.85          
    4615,  0.3000000119209,  -0.9           
    4616,  0.3000000119209,  -0.95          
    4617,  0.2500000099341,  -0.8           
    4618,  0.2000000079472,  -0.8           
    4619,  0.1500000059604,  -0.8           
    4620,  0.1000000039736,  -0.8           
    4621,  0.0500000019868,  -0.8           
    4622,  0.1500000059604,  -0.75          
    4623,  0.1500000059604,  -0.7           
    4624,  0.1500000059604,  -0.65          
    4625,  0.2000000079472,  -0.7           
    4626,  0.2500000099341,  -0.7           
    4627,  0.2000000079472,  -0.75          
    4628,  0.2500000099341,  -0.75          
    4629,  0.2000000079472,  -0.65          
    4630,  0.2500000099341,  -0.65          
    4631,  0.0500000019868,  -0.7           
    4632,  0.1000000039736,  -0.7           
    4633,  0.0500000019868,  -0.75          
    4634,  0.1000000039736,  -0.75          
    4635,  0.0500000019868,  -0.65          
    4636,  0.1000000039736,  -0.65          
    4637,  0.1500000059604,  -0.95          
    4638,  0.1500000059604,  -0.9           
    4639,  0.1500000059604,  -0.85          
    4640,  0.2000000079472,  -0.9           
    4641,  0.2500000099341,  -0.9           
    4643,  0.2500000099341,  -0.95          
    4644,  0.2000000079472,  -0.85          
    4645,  0.2500000099341,  -0.85          
    4646,  0.0500000019868,  -0.9           
    4647,  0.1000000039736,  -0.9           
    4648,  0.0500000019868,  -0.95          
    4649,  0.1000000039736,  -0.949999999999
    4650,  0.0500000019868,  -0.85          
    4651,  0.1000000039736,  -0.85          
    4652,  0.550000021855 ,  -0.8           
    4653,  0.5000000198682,  -0.8           
    4654,  0.4500000178813,  -0.8           
    4655,  0.4000000158945,  -0.8           
    4656,  0.3500000139077,  -0.8           
    4657,  0.4500000178813,  -0.75          
    4658,  0.4500000178813,  -0.7           
    4659,  0.4500000178813,  -0.65          
    4660,  0.5000000198682,  -0.7           
    4661,  0.550000021855 ,  -0.7           
    4662,  0.5000000198682,  -0.75          
    4663,  0.550000021855 ,  -0.75          
    4664,  0.5000000198682,  -0.65          
    4665,  0.550000021855 ,  -0.65          
    4666,  0.3500000139077,  -0.7           
    4667,  0.4000000158945,  -0.7           
    4668,  0.3500000139077,  -0.75          
    4669,  0.4000000158945,  -0.75          
    4670,  0.3500000139077,  -0.65          
    4671,  0.4000000158945,  -0.65          
    4672,  0.4500000178813,  -0.95          
    4673,  0.4500000178813,  -0.9           
    4674,  0.4500000178813,  -0.85          
    4675,  0.5000000198682,  -0.9           
    4676,  0.550000021855 ,  -0.9           
    4677,  0.5000000198682,  -0.95          
    4678,  0.550000021855 ,  -0.95          
    4679,  0.5000000198682,  -0.85          
    4680,  0.550000021855 ,  -0.85          
    4681,  0.3500000139077,  -0.9           
    4682,  0.4000000158945,  -0.9           
    4683,  0.3500000139077,  -0.95          
    4685,  0.3500000139077,  -0.85          
    4686,  0.4000000158945,  -0.85          
    4696,  0.65           ,  -0.6           
    4697,  0.7            ,  -0.6           
    4698,  0.75           ,  -0.6           
    4699,  0.8            ,  -0.6           
    4700,  0.85           ,  -0.6           
    4701,  0.9            ,  -0.6           
    4720,  0.9000000044703,  -0.8           
    4721,  0.8500000037252,  -0.8           
    4722,  0.8000000029802,  -0.8           
    4723,  0.7500000022351,  -0.799999999999
    4724,  0.7000000014901,  -0.8           
    4725,  0.650000000745 ,  -0.8           
    4726,  0.8000000029802,  -0.75          
    4727,  0.8000000029802,  -0.7           
    4728,  0.8000000029802,  -0.65          
    4729,  0.8500000037252,  -0.7           
    4730,  0.9000000044703,  -0.7           
    4731,  0.9500000052154,  -0.7           
    4732,  0.9000000044703,  -0.75          
    4733,  0.8500000037252,  -0.75          
    4734,  0.9500000052154,  -0.75          
    4735,  0.9000000044703,  -0.65          
    4736,  0.8500000037252,  -0.65          
    4737,  0.9500000052154,  -0.65          
    4738,  0.650000000745 ,  -0.7           
    4739,  0.7000000014901,  -0.7           
    4740,  0.7500000022351,  -0.7           
    4741,  0.7000000014901,  -0.75          
    4742,  0.650000000745 ,  -0.75          
    4743,  0.7500000022351,  -0.75          
    4744,  0.7000000014901,  -0.65          
    4745,  0.650000000745 ,  -0.65          
    4746,  0.7500000022351,  -0.65          
    4748,  0.8000000029802,  -0.9           
    4749,  0.8000000029802,  -0.85          
    4750,  0.9000000044703,  -0.95          
    4751,  0.9000000044703,  -0.9           
    4752,  0.9000000044703,  -0.85          
    4753,  0.9500000052154,  -0.9           
    4754,  0.9500000052154,  -0.95          
    4755,  0.9500000052154,  -0.85          
    4756,  0.8500000037252,  -0.9           
    4757,  0.8500000037252,  -0.95          
    4758,  0.8500000037252,  -0.85          
    4759,  0.7000000014901,  -0.95          
    4760,  0.7000000014901,  -0.9           
    4761,  0.7000000014901,  -0.85          
    4762,  0.7500000022351,  -0.9           
    4763,  0.7500000022351,  -0.95          
    4764,  0.7500000022351,  -0.85          
    4765,  0.650000000745 ,  -0.9           
    4766,  0.650000000745 ,  -0.95          
    4767,  0.650000000745 ,  -0.85          
    4769,  0.65           ,  0.0            
    4770,  0.7            ,  0.0            
    4771,  0.75           ,  0.0            
    4772,  0.8            ,  0.0            
    4773,  0.85           ,  0.0            
    4774,  0.9            ,  0.0            
    4808,  0.95           ,  -0.30000001192 
    4809,  0.9            ,  -0.30000001192 
    4810,  0.85           ,  -0.30000001192 
    4811,  0.8            ,  -0.30000001192 
    4812,  0.75           ,  -0.30000001192 
    4813,  0.7            ,  -0.30000001192 
    4814,  0.65           ,  -0.30000001192 
    4815,  0.8            ,  -0.250000009934
    4816,  0.8            ,  -0.200000007947
    4817,  0.8            ,  -0.15000000596 
    4818,  0.8            ,  -0.100000003973
    4819,  0.7999999999999,  -0.050000001986
    4820,  0.85           ,  -0.15000000596 
    4821,  0.9            ,  -0.15000000596 
    4822,  0.95           ,  -0.15000000596 
    4823,  0.9            ,  -0.200000007947
    4824,  0.9            ,  -0.250000009934
    4825,  0.85           ,  -0.200000007947
    4826,  0.85           ,  -0.250000009934
    4828,  0.95           ,  -0.250000009934
    4829,  0.9            ,  -0.050000001986
    4830,  0.9            ,  -0.100000003973
    4831,  0.85           ,  -0.050000001986
    4832,  0.85           ,  -0.100000003973
    4833,  0.95           ,  -0.050000001986
    4834,  0.95           ,  -0.100000003973
    4835,  0.65           ,  -0.15000000596 
    4836,  0.7            ,  -0.15000000596 
    4837,  0.75           ,  -0.15000000596 
    4838,  0.7            ,  -0.200000007947
    4839,  0.7            ,  -0.250000009934
    4840,  0.65           ,  -0.200000007947
    4841,  0.65           ,  -0.250000009934
    4842,  0.75           ,  -0.200000007947
    4843,  0.75           ,  -0.250000009934
    4844,  0.7            ,  -0.050000001986
    4845,  0.7            ,  -0.100000003973
    4846,  0.65           ,  -0.050000001986
    4847,  0.65           ,  -0.100000003973
    4848,  0.75           ,  -0.050000001986
    4849,  0.75           ,  -0.100000003973
    4850,  0.8            ,  -0.550000021855
    4851,  0.8            ,  -0.500000019868
    4852,  0.8            ,  -0.450000017881
    4853,  0.8            ,  -0.400000015894
    4854,  0.8            ,  -0.350000013907
    4855,  0.85           ,  -0.450000017881
    4856,  0.9            ,  -0.450000017881
    4857,  0.95           ,  -0.450000017881
    4858,  0.9            ,  -0.500000019868
    4859,  0.9            ,  -0.550000021855
    4860,  0.85           ,  -0.500000019868
    4861,  0.85           ,  -0.550000021855
    4862,  0.95           ,  -0.500000019868
    4863,  0.95           ,  -0.550000021855
    4864,  0.9            ,  -0.350000013907
    4865,  0.9            ,  -0.400000015894
    4866,  0.85           ,  -0.350000013907
    4867,  0.85           ,  -0.400000015894
    4868,  0.95           ,  -0.350000013907
    4870,  0.65           ,  -0.450000017881
    4871,  0.7            ,  -0.450000017881
    4872,  0.75           ,  -0.450000017881
    4873,  0.7            ,  -0.500000019868
    4874,  0.7            ,  -0.550000021855
    4875,  0.65           ,  -0.500000019868
    4876,  0.65           ,  -0.550000021855
    4877,  0.75           ,  -0.500000019868
    4878,  0.75           ,  -0.550000021855
    4879,  0.7            ,  -0.350000013907
    4880,  0.7            ,  -0.400000015894
    4881,  0.65           ,  -0.350000013907
    4882,  0.65           ,  -0.400000015894
    4883,  0.75           ,  -0.350000013907
    4884,  0.75           ,  -0.400000015894
    4886,  0.0            ,  -1.1           
    4887,  0.0            ,  -1.0           
    4894,  0.7            ,  -1.0           
    4895,  0.8            ,  -1.0           
    4896,  0.9            ,  -1.0           
    4897,  1.0            ,  -1.0           
    4898,  1.0            ,  -1.1           
    4899,  0.9            ,  -1.1           
    4900,  0.8            ,  -1.1           
    4901,  0.7            ,  -1.1           
    4902,  0.6            ,  -1.1           
    4903,  0.5            ,  -1.1           
    4904,  0.4            ,  -1.1           
    4905,  0.3            ,  -1.1           
    4906,  0.2            ,  -1.1           
    4907,  0.1            ,  -1.1           
    4910,  1.1            ,  -1.1           
    4911,  1.1            ,  -1.0           
    4912,  1.0            ,  0.0            
    4913,  1.1            ,  0.0            
    4914,  1.1            ,  -0.1           
    4915,  1.1            ,  -0.2           
    4916,  1.1            ,  -0.3           
    4917,  1.1            ,  -0.4           
    4918,  1.1            ,  -0.5           
    4919,  1.1            ,  -0.6           
    4920,  1.1            ,  -0.7           
    4921,  1.1            ,  -0.8           
    4922,  1.1            ,  -0.9           
    4925,  1.0            ,  -0.9           
    4926,  1.0            ,  -0.8           
    4927,  1.0            ,  -0.7           
    4928,  1.0            ,  -0.6           
    4929,  1.0            ,  -0.5           
    4930,  1.0            ,  -0.4           
    4931,  1.0            ,  -0.3           
    4932,  1.0            ,  -0.2           
    4933,  1.0            ,  -0.1           
    4934,  0.0            ,  -1.3           
    4935,  0.0            ,  -1.2           
    4948,  1.1            ,  -1.2           
    4951,  0.9            ,  -1.3           
    4952,  0.8            ,  -1.3           
    4953,  0.7            ,  -1.3           
    4955,  0.5            ,  -1.3           
    4956,  0.4            ,  -1.3           
    4957,  0.3            ,  -1.3           
    4959,  0.1            ,  -1.3           
    4960,  0.5000000108372,  -1.2           
    4961,  0.2000000043348,  -1.2           
    4962,  0.1000000021674,  -1.2           
    4963,  0.3000000065023,  -1.2           
    4964,  0.4000000086697,  -1.2           
    4965,  0.8000000173395,  -1.2           
    4966,  0.6000000130046,  -1.2           
    4967,  0.700000015172 ,  -1.2           
    4968,  0.9000000195069,  -1.2           
    4969,  1.0000000216744,  -1.2           
    4970,  1.1            ,  -1.3           
    4973,  1.2            ,  -1.1           
    4974,  1.3            ,  -1.1           
    4975,  1.3            ,  -1.2           
    4976,  1.3            ,  -1.3           
    4977,  1.2            ,  -1.3           
    4978,  1.2000000014901,  -1.2           
    4980,  1.2            ,  0.0            
    4981,  1.3            ,  0.0            
    4982,  1.3            ,  -0.1           
    4984,  1.3            ,  -0.3           
    4985,  1.3            ,  -0.4           
    4986,  1.3            ,  -0.5           
    4988,  1.3            ,  -0.7           
    4989,  1.3            ,  -0.8           
    4990,  1.3            ,  -0.9           
    5005,  1.2            ,  -0.500000010837
    5006,  1.2            ,  -0.200000004334
    5007,  1.2            ,  -0.100000002167
    5008,  1.2            ,  -0.300000006502
    5009,  1.2            ,  -0.400000008669
    5010,  1.2            ,  -0.800000017339
    5011,  1.2            ,  -0.600000013004
    5012,  1.2            ,  -0.700000015172
    5013,  1.2            ,  -0.900000019506
    5014,  1.2            ,  -1.000000021674
    5048,  1.4            ,  0.0            
    5050,  1.4            ,  -0.2           
    5052,  1.4            ,  -0.4           
    5054,  1.4            ,  -0.6           
    5056,  1.4            ,  -0.8           
    5058,  1.4            ,  -1.0           
    5060,  1.4            ,  -1.2           
    5075,  0.0            ,  -1.6           
    5076,  0.0            ,  -1.4           
    5077,  0.2            ,  -1.4           
    5078,  0.4            ,  -1.4           
    5079,  0.6            ,  -1.4           
    5080,  0.8            ,  -1.4           
    5081,  1.0            ,  -1.4           
    5082,  1.2            ,  -1.4           
    5083,  1.4            ,  -1.4           
    5084,  1.4            ,  -1.6           
    5085,  1.2            ,  -1.6           
    5086,  1.0            ,  -1.6           
    5087,  0.8            ,  -1.6           
    5088,  0.6            ,  -1.6           
    5089,  0.4            ,  -1.6           
    5090,  0.2            ,  -1.6           
    5093,  1.6            ,  -1.4           
    5094,  1.6            ,  -1.6           
    5097,  1.6            ,  -1.2           
    5098,  1.6            ,  -1.0           
    5099,  1.6            ,  -0.8           
    5100,  1.6            ,  -0.6           
    5101,  1.6            ,  -0.4           
    5102,  1.6            ,  -0.2           
    5103,  1.6            ,  0.0            
    5111,  1.4            ,  -1.6           
    5117,  1.94           ,  -0.2425        
    5118,  2.45           ,  -0.30625       
    5119,  3.13           ,  -0.39125       
    5120,  3.98           ,  -0.4975        
    5121,  1.94           ,  -0.485         
    5122,  2.45           ,  -0.6125        
    5123,  3.13           ,  -0.7825        
    5124,  3.98           ,  -0.995         
    5125,  1.94           ,  -0.7275        
    5126,  2.45           ,  -0.91875       
    5127,  3.13           ,  -1.17375       
    5128,  3.98           ,  -1.4925        
    5129,  1.94           ,  -0.97          
    5130,  2.45           ,  -1.225         
    5131,  3.13           ,  -1.565         
    5132,  3.98           ,  -1.99          
    5133,  1.94           ,  -1.2125        
    5134,  2.45           ,  -1.53125       
    5135,  3.13           ,  -1.95625       
    5136,  3.98           ,  -2.4875        
    5137,  1.94           ,  -1.455         
    5138,  2.45           ,  -1.8375        
    5139,  3.13           ,  -2.3475        
    5140,  3.98           ,  -2.985         
    5141,  1.94           ,  -1.6975        
    5142,  2.45           ,  -2.14375       
    5143,  3.13           ,  -2.73875       
    5144,  3.98           ,  -3.4825        
    5145,  1.94           ,  -1.94          
    5146,  2.45           ,  -2.45          
    5147,  3.13           ,  -3.13          
    5148,  3.98           ,  -3.98          
    5149,  1.6975         ,  -1.94          
    5150,  2.14375        ,  -2.45          
    5151,  2.73875        ,  -3.13          
    5152,  3.4825         ,  -3.98          
    5153,  1.455          ,  -1.94          
    5154,  1.8375         ,  -2.45          
    5155,  2.3475         ,  -3.13          
    5156,  2.985          ,  -3.98          
    5157,  1.2125         ,  -1.94          
    5158,  1.53125        ,  -2.45          
    5159,  1.95625        ,  -3.13          
    5160,  2.4875         ,  -3.98          
    5161,  0.97           ,  -1.94          
    5162,  1.225          ,  -2.45          
    5163,  1.565          ,  -3.13          
    5164,  1.99           ,  -3.98          
    5165,  0.7275         ,  -1.94          
    5166,  0.91875        ,  -2.45          
    5167,  1.17375        ,  -3.13          
    5168,  1.4925         ,  -3.98          
    5169,  0.485          ,  -1.94          
    5170,  0.6125         ,  -2.45          
    5171,  0.7825         ,  -3.13          
    5172,  0.995          ,  -3.98          
    5173,  0.2425         ,  -1.94          
    5174,  0.30625        ,  -2.45          
    5175,  0.39125        ,  -3.13          
    5176,  0.4975         ,  -3.98          
    5177,  1.94           ,  0.0            
    5178,  2.45           ,  0.0            
    5179,  3.13           ,  0.0            
    5180,  3.98           ,  0.0            
    5181,  0.0            ,  -1.94          
    5182,  0.0            ,  -2.45          
    5183,  0.0            ,  -3.13          
    5184,  0.0            ,  -3.98          
    5186,  5.0            ,  0.0            
    5188,  5.0            ,  -0.625         
    5190,  5.0            ,  -1.25          
    5192,  5.0            ,  -1.875         
    5194,  5.0            ,  -2.5           
    5196,  5.0            ,  -3.125         
    5198,  5.0            ,  -3.75          
    5200,  5.0            ,  -4.375         
    5202,  5.0            ,  -5.0           
    5204,  4.375          ,  -5.0           
    5206,  3.75           ,  -5.0           
    5208,  3.125          ,  -5.0           
    5210,  2.5            ,  -5.0           
    5212,  1.875          ,  -5.0           
    5214,  1.25           ,  -5.0           
    5216,  0.625          ,  -5.0           
    5218,  0.0            ,  -5.0           
*ELEMENT,TYPE=CAX4,ELSET=specimen
    1764,    1962,    1961,    1963,    1964
    1763,    1957,    1962,    1964,    1958
    1762,    1964,    1963,    1952,    1951
    1761,    1958,    1964,    1951,    1950
    1760,    1931,    1963,    1961,    1932
    1759,    1930,    1952,    1963,    1931
    1758,    1962,    1957,    1891,    1890
    1757,    1961,    1962,    1890,    1889
    1756,    1932,    1961,    1889,    1888
    1755,    1949,    1801,    1800,    1960
    1754,    1950,    1949,    1960,    1958
    1753,    1960,    1800,    1799,    1959
    1752,    1958,    1960,    1959,    1957
    1751,    1959,    1799,    1798,    1892
    1750,    1957,    1959,    1892,    1891
    1749,    1617,    1616,    1955,    1956
    1748,    1618,    1617,    1956,    1929
    1747,    1956,    1955,    1951,    1952
    1746,    1929,    1956,    1952,    1930
    1745,    1953,    1955,    1616,    1615
    1744,    1950,    1951,    1955,    1953
    1743,    1614,    1613,    1802,    1954
    1742,    1615,    1614,    1954,    1953
    1741,    1954,    1802,    1801,    1949
    1740,    1953,    1954,    1949,    1950
    3207,    3320,    3321,    3607,    3533
    1738,    1941,    1946,    1948,    1942
    1736,    1942,    1948,    1935,    1934
    2945,    3532,    3319,    3320,    3533
    2944,    3531,    3318,    3319,    3532
    1733,    1946,    1941,    1886,    1885
    2943,    3530,    3317,    3318,    3531
    2942,    3529,    3316,    3317,    3530
    1730,    1933,    1930,    1931,    1944
    1729,    1934,    1933,    1944,    1942
    1728,    1944,    1931,    1932,    1943
    1727,    1942,    1944,    1943,    1941
    1726,    1943,    1932,    1888,    1887
    1725,    1941,    1943,    1887,    1886
    2941,    3528,    3315,    3316,    3529
    2940,    3527,    3314,    3315,    3528
    2939,    3526,    3313,    3314,    3527
    2938,    3525,    3312,    3313,    3526
    1720,    1937,    1939,    1621,    1620
    1719,    1934,    1935,    1939,    1937
    1718,    1619,    1618,    1929,    1938
    1717,    1620,    1619,    1938,    1937
    1716,    1938,    1929,    1930,    1933
    1715,    1937,    1938,    1933,    1934
    1714,    1926,    1925,    1927,    1928
    1713,    1921,    1926,    1928,    1922
    1712,    1928,    1927,    1916,    1915
    1711,    1922,    1928,    1915,    1914
    1710,    1895,    1927,    1925,    1896
    1709,    1894,    1916,    1927,    1895
    1708,    1926,    1921,    1576,    1577
    1707,    1925,    1926,    1577,    1578
    1706,    1896,    1925,    1578,    1579
    1705,    1913,    1796,    1795,    1924
    1704,    1914,    1913,    1924,    1922
    1703,    1924,    1795,    1794,    1923
    1702,    1922,    1924,    1923,    1921
    1701,    1923,    1794,    1574,    1575
    1700,    1921,    1923,    1575,    1576
    1699,    1889,    1890,    1919,    1920
    1698,    1888,    1889,    1920,    1893
    1697,    1920,    1919,    1915,    1916
    1696,    1893,    1920,    1916,    1894
    1695,    1917,    1919,    1890,    1891
    1694,    1914,    1915,    1919,    1917
    1693,    1892,    1798,    1797,    1918
    1692,    1891,    1892,    1918,    1917
    1691,    1918,    1797,    1796,    1913
    1690,    1917,    1918,    1913,    1914
    2937,    3524,    3311,    3312,    3525
    1688,    1905,    1910,    1912,    1906
    2936,    3523,    3310,    3311,    3524
    1686,    1906,    1912,    1899,    1898
    2935,    3522,    3309,    3310,    3523
    2934,    3521,    3308,    3309,    3522
    1683,    1910,    1905,    1581,    1582
    1682,    1909,    1910,    1582,    1583
    1681,    1585,    1909,    1583,    1584
    1680,    1897,    1894,    1895,    1908
    1679,    1898,    1897,    1908,    1906
    1678,    1908,    1895,    1896,    1907
    1677,    1906,    1908,    1907,    1905
    1676,    1907,    1896,    1579,    1580
    1675,    1905,    1907,    1580,    1581
    2933,    3520,    3307,    3308,    3521
    2932,    3519,    3306,    3307,    3520
    2931,    3518,    3305,    3306,    3519
    2930,    3517,    3304,    3305,    3518
    1670,    1901,    1903,    1885,    1886
    1669,    1898,    1899,    1903,    1901
    1668,    1887,    1888,    1893,    1902
    1667,    1886,    1887,    1902,    1901
    1666,    1902,    1893,    1894,    1897
    1665,    1901,    1902,    1897,    1898
    1664,    1883,    1881,    1880,    1882
    1663,    1877,    1876,    1881,    1883
    1662,    1870,    1883,    1882,    1871
    1661,    1869,    1877,    1883,    1870
    1660,    1882,    1880,    1811,    1810
    1659,    1871,    1882,    1810,    1809
    1658,    1557,    1881,    1876,    1556
    1657,    1558,    1880,    1881,    1557
    1656,    1559,    1811,    1880,    1558
    1655,    1605,    1604,    1878,    1879
    1654,    1606,    1605,    1879,    1868
    1653,    1879,    1878,    1876,    1877
    1652,    1868,    1879,    1877,    1869
    1651,    1555,    1878,    1604,    1554
    1650,    1556,    1876,    1878,    1555
    1649,    1808,    1807,    1851,    1875
    1648,    1809,    1808,    1875,    1871
    1647,    1875,    1851,    1850,    1874
    1646,    1871,    1875,    1874,    1870
    1645,    1874,    1850,    1849,    1872
    1644,    1870,    1874,    1872,    1869
    1643,    1872,    1849,    1848,    1873
    1642,    1869,    1872,    1873,    1868
    1641,    1873,    1848,    1608,    1607
    1640,    1868,    1873,    1607,    1606
    1639,    1865,    1864,    1866,    1867
    1638,    1860,    1865,    1867,    1861
    1637,    1867,    1866,    1855,    1854
    1636,    1861,    1867,    1854,    1853
    1635,    1800,    1866,    1864,    1799
    1634,    1801,    1855,    1866,    1800
    1633,    1865,    1860,    1805,    1804
    1632,    1864,    1865,    1804,    1803
    1631,    1799,    1864,    1803,    1798
    1630,    1852,    1849,    1850,    1863
    1629,    1853,    1852,    1863,    1861
    1628,    1863,    1850,    1851,    1862
    1627,    1861,    1863,    1862,    1860
    1626,    1862,    1851,    1807,    1806
    1625,    1860,    1862,    1806,    1805
    1624,    1612,    1611,    1858,    1859
    1623,    1613,    1612,    1859,    1802
    1622,    1859,    1858,    1854,    1855
    1621,    1802,    1859,    1855,    1801
    1620,    1856,    1858,    1611,    1610
    1619,    1853,    1854,    1858,    1856
    1618,    1609,    1608,    1848,    1857
    1617,    1610,    1609,    1857,    1856
    1616,    1857,    1848,    1849,    1852
    1615,    1856,    1857,    1852,    1853
    1614,    1847,    1841,    1840,    1845
    1613,    1834,    1833,    1841,    1847
    1612,    1846,    1847,    1845,    1844
    1611,    1835,    1834,    1847,    1846
    1610,    1814,    1846,    1844,    1815
    1609,    1813,    1835,    1846,    1814
    1608,    1845,    1840,    1566,    1567
    1607,    1844,    1845,    1567,    1568
    1606,    1815,    1844,    1568,    1569
    1605,    1832,    1561,    1562,    1843
    1604,    1833,    1832,    1843,    1841
    1603,    1843,    1562,    1563,    1842
    1602,    1841,    1843,    1842,    1840
    1601,    1842,    1563,    1564,    1565
    1600,    1840,    1842,    1565,    1566
    1599,    1808,    1809,    1838,    1839
    1598,    1807,    1808,    1839,    1812
    1597,    1839,    1838,    1834,    1835
    1596,    1812,    1839,    1835,    1813
    1595,    1836,    1838,    1809,    1810
    1594,    1833,    1834,    1838,    1836
    1593,    1837,    1836,    1810,    1811
    1592,    1832,    1833,    1836,    1837
    1591,    1560,    1837,    1811,    1559
    1590,    1561,    1832,    1837,    1560
    1589,    1829,    1828,    1830,    1831
    1588,    1824,    1829,    1831,    1825
    1587,    1831,    1830,    1819,    1818
    1586,    1825,    1831,    1818,    1817
    1585,    1795,    1830,    1828,    1794
    1584,    1796,    1819,    1830,    1795
    1583,    1829,    1824,    1571,    1572
    1582,    1828,    1829,    1572,    1573
    1581,    1794,    1828,    1573,    1574
    1580,    1816,    1813,    1814,    1827
    1579,    1817,    1816,    1827,    1825
    1578,    1827,    1814,    1815,    1826
    1577,    1825,    1827,    1826,    1824
    1576,    1826,    1815,    1569,    1570
    1575,    1824,    1826,    1570,    1571
    1574,    1803,    1804,    1822,    1823
    1573,    1798,    1803,    1823,    1797
    1572,    1823,    1822,    1818,    1819
    1571,    1797,    1823,    1819,    1796
    1570,    1820,    1822,    1804,    1805
    1569,    1817,    1818,    1822,    1820
    1568,    1806,    1807,    1812,    1821
    1567,    1805,    1806,    1821,    1820
    1566,    1821,    1812,    1813,    1816
    1565,    1820,    1821,    1816,    1817
    1564,    1791,    1790,    1792,    1793
    1563,    1786,    1791,    1793,    1787
    1562,    1793,    1792,    1781,    1780
    1561,    1787,    1793,    1780,    1779
    1560,    1760,    1792,    1790,    1761
    1559,    1759,    1781,    1792,    1760
    1558,    1791,    1786,    1720,    1719
    1557,    1790,    1791,    1719,    1718
    1556,    1761,    1790,    1718,    1717
    1555,    1778,    1630,    1629,    1789
    1554,    1779,    1778,    1789,    1787
    1553,    1789,    1629,    1628,    1788
    1552,    1787,    1789,    1788,    1786
    1551,    1788,    1628,    1627,    1721
    1550,    1786,    1788,    1721,    1720
    1549,    1530,    1531,    1784,    1785
    1548,    1529,    1530,    1785,    1758
    1547,    1785,    1784,    1780,    1781
    1546,    1758,    1785,    1781,    1759
    1545,    1782,    1784,    1531,    1532
    1544,    1779,    1780,    1784,    1782
    1543,    1533,    1534,    1631,    1783
    1542,    1532,    1533,    1783,    1782
    1541,    1783,    1631,    1630,    1778
    1540,    1782,    1783,    1778,    1779
    2929,    3516,    3303,    3304,    3517
    1538,    1770,    1775,    1777,    1771
    2928,    3515,    3302,    3303,    3516
    1536,    1771,    1777,    1764,    1763
    2927,    3514,    3301,    3302,    3515
    2926,    3513,    3300,    3301,    3514
    1533,    1775,    1770,    1715,    1714
    2925,    3512,    3299,    3300,    3513
    2924,    3511,    3298,    3299,    3512
    1530,    1762,    1759,    1760,    1773
    1529,    1763,    1762,    1773,    1771
    1528,    1773,    1760,    1761,    1772
    1527,    1771,    1773,    1772,    1770
    1526,    1772,    1761,    1717,    1716
    1525,    1770,    1772,    1716,    1715
    2923,    3510,    3297,    3298,    3511
    2922,    3509,    3296,    3297,    3510
    2921,    3508,    3295,    3296,    3509
    2920,    3507,    3294,    3295,    3508
    1520,    1766,    1768,    1526,    1527
    1519,    1763,    1764,    1768,    1766
    1518,    1528,    1529,    1758,    1767
    1517,    1527,    1528,    1767,    1766
    1516,    1767,    1758,    1759,    1762
    1515,    1766,    1767,    1762,    1763
    1514,    1755,    1754,    1756,    1757
    1513,    1750,    1755,    1757,    1751
    1512,    1757,    1756,    1745,    1744
    1511,    1751,    1757,    1744,    1743
    1510,    1724,    1756,    1754,    1725
    1509,    1723,    1745,    1756,    1724
    1508,    1755,    1750,    1615,    1616
    1507,    1754,    1755,    1616,    1617
    1506,    1725,    1754,    1617,    1618
    1505,    1742,    1625,    1624,    1753
    1504,    1743,    1742,    1753,    1751
    1503,    1753,    1624,    1623,    1752
    1502,    1751,    1753,    1752,    1750
    1501,    1752,    1623,    1613,    1614
    1500,    1750,    1752,    1614,    1615
    1499,    1718,    1719,    1748,    1749
    1498,    1717,    1718,    1749,    1722
    1497,    1749,    1748,    1744,    1745
    1496,    1722,    1749,    1745,    1723
    1495,    1746,    1748,    1719,    1720
    1494,    1743,    1744,    1748,    1746
    1493,    1721,    1627,    1626,    1747
    1492,    1720,    1721,    1747,    1746
    1491,    1747,    1626,    1625,    1742
    1490,    1746,    1747,    1742,    1743
    2919,    3506,    3293,    3294,    3507
    1488,    1734,    1739,    1741,    1735
    2918,    3505,    3292,    3293,    3506
    1486,    1735,    1741,    1728,    1727
    2917,    3504,    3291,    3292,    3505
    2916,    3503,    3290,    3291,    3504
    1483,    1739,    1734,    1620,    1621
    2915,    3502,    3289,    3290,    3503
    2914,    3501,    3288,    3289,    3502
    1480,    1726,    1723,    1724,    1737
    1479,    1727,    1726,    1737,    1735
    1478,    1737,    1724,    1725,    1736
    1477,    1735,    1737,    1736,    1734
    1476,    1736,    1725,    1618,    1619
    1475,    1734,    1736,    1619,    1620
    2913,    3500,    3287,    3288,    3501
    2912,    3499,    3286,    3287,    3500
    3177,    3091,    3092,    1585,    3607
    1470,    1730,    1732,    1714,    1715
    1469,    1727,    1728,    1732,    1730
    1468,    1716,    1717,    1722,    1731
    1467,    1715,    1716,    1731,    1730
    1466,    1731,    1722,    1723,    1726
    1465,    1730,    1731,    1726,    1727
    1464,    1710,    1709,    1711,    1712
    1463,    1705,    1710,    1712,    1706
    1462,    1712,    1711,    1700,    1699
    1461,    1706,    1712,    1699,    1698
    1460,    1639,    1711,    1709,    1640
    1459,    1638,    1700,    1711,    1639
    1458,    1710,    1705,    1536,    1537
    1457,    1709,    1710,    1537,    1538
    1456,    1640,    1709,    1538,    1539
    1455,    1697,    1629,    1630,    1708
    1454,    1698,    1697,    1708,    1706
    1453,    1708,    1630,    1631,    1707
    1452,    1706,    1708,    1707,    1705
    1451,    1707,    1631,    1534,    1535
    1450,    1705,    1707,    1535,    1536
    1449,    1680,    1679,    1703,    1704
    1448,    1636,    1680,    1704,    1637
    1447,    1704,    1703,    1699,    1700
    1446,    1637,    1704,    1700,    1638
    1445,    1701,    1703,    1679,    1678
    1444,    1698,    1699,    1703,    1701
    1443,    1677,    1627,    1628,    1702
    1442,    1678,    1677,    1702,    1701
    1441,    1702,    1628,    1629,    1697
    1440,    1701,    1702,    1697,    1698
    1439,    1694,    1693,    1695,    1696
    1438,    1689,    1694,    1696,    1690
    1437,    1696,    1695,    1684,    1683
    1436,    1690,    1696,    1683,    1682
    1435,    1634,    1695,    1693,    1635
    1434,    1633,    1684,    1695,    1634
    1433,    1694,    1689,    1678,    1679
    1432,    1693,    1694,    1679,    1680
    1431,    1635,    1693,    1680,    1636
    1430,    1681,    1624,    1625,    1692
    1429,    1682,    1681,    1692,    1690
    1428,    1692,    1625,    1626,    1691
    1427,    1690,    1692,    1691,    1689
    1426,    1691,    1626,    1627,    1677
    1425,    1689,    1691,    1677,    1678
    1424,    1609,    1610,    1687,    1688
    1423,    1608,    1609,    1688,    1632
    1422,    1688,    1687,    1683,    1684
    1421,    1632,    1688,    1684,    1633
    1420,    1685,    1687,    1610,    1611
    1419,    1682,    1683,    1687,    1685
    1418,    1612,    1613,    1623,    1686
    1417,    1611,    1612,    1686,    1685
    1416,    1686,    1623,    1624,    1681
    1415,    1685,    1686,    1681,    1682
    1414,    1670,    1669,    1674,    1676
    1413,    1662,    1670,    1676,    1663
    1412,    1676,    1674,    1673,    1675
    1411,    1663,    1676,    1675,    1664
    1410,    1675,    1673,    1644,    1643
    1409,    1664,    1675,    1643,    1642
    1408,    1547,    1674,    1669,    1546
    1407,    1548,    1673,    1674,    1547
    1406,    1549,    1644,    1673,    1548
    1405,    1542,    1543,    1671,    1672
    1404,    1541,    1542,    1672,    1661
    1403,    1672,    1671,    1669,    1670
    1402,    1661,    1672,    1670,    1662
    1401,    1545,    1671,    1543,    1544
    1400,    1546,    1669,    1671,    1545
    1399,    1641,    1636,    1637,    1668
    1398,    1642,    1641,    1668,    1664
    1397,    1668,    1637,    1638,    1667
    1396,    1664,    1668,    1667,    1663
    1395,    1667,    1638,    1639,    1665
    1394,    1663,    1667,    1665,    1662
    1393,    1665,    1639,    1640,    1666
    1392,    1662,    1665,    1666,    1661
    1391,    1666,    1640,    1539,    1540
    1390,    1661,    1666,    1540,    1541
    1389,    1654,    1653,    1658,    1660
    1388,    1646,    1654,    1660,    1647
    1387,    1660,    1658,    1657,    1659
    1386,    1647,    1660,    1659,    1648
    1385,    1659,    1657,    1604,    1605
    1384,    1648,    1659,    1605,    1606
    1383,    1552,    1658,    1653,    1551
    1382,    1553,    1657,    1658,    1552
    1381,    1554,    1604,    1657,    1553
    1380,    1643,    1644,    1655,    1656
    1379,    1642,    1643,    1656,    1645
    1378,    1656,    1655,    1653,    1654
    1377,    1645,    1656,    1654,    1646
    1376,    1550,    1655,    1644,    1549
    1375,    1551,    1653,    1655,    1550
    1374,    1607,    1608,    1632,    1652
    1373,    1606,    1607,    1652,    1648
    1372,    1652,    1632,    1633,    1651
    1371,    1648,    1652,    1651,    1647
    1370,    1651,    1633,    1634,    1649
    1369,    1647,    1651,    1649,    1646
    1368,    1649,    1634,    1635,    1650
    1367,    1646,    1649,    1650,    1645
    1366,    1650,    1635,    1636,    1641
    1365,    1645,    1650,    1641,    1642
    2911,    3498,    3285,    3286,    3499
    2910,    3497,    3284,    3285,    3498
    2909,    3496,    3283,    3284,    3497
    2908,    3495,    3282,    3283,    3496
    2907,    3494,    3281,    3282,    3495
    2906,    3493,    3280,    3281,    3494
    2905,    3492,    3279,    3280,    3493
    2904,    3491,    3278,    3279,    3492
    2903,    3490,    3277,    3278,    3491
    2902,    3489,    3276,    3277,    3490
    2901,    3488,    3275,    3276,    3489
    2900,    3487,    3274,    3275,    3488
    2899,    3486,    3273,    3274,    3487
    2898,    3485,    3272,    3273,    3486
    2897,    3484,    3271,    3272,    3485
    2896,    3483,    3270,    3271,    3484
    2895,    3482,    3269,    3270,    3483
    2894,    3481,    3268,    3269,    3482
    2893,    3480,    3267,    3268,    3481
    2892,    3479,    3266,    3267,    3480
    2891,    3478,    3265,    3266,    3479
    2890,    3477,    3264,    3265,    3478
    2889,    3476,    3263,    3264,    3477
    2888,    3475,    3262,    3263,    3476
    2887,    3474,    3261,    3262,    3475
    2886,    3473,    3260,    3261,    3474
    2885,    3472,    3259,    3260,    3473
    2884,    3471,    3258,    3259,    3472
    2883,    3470,    3257,    3258,    3471
    2882,    3469,    3256,    3257,    3470
    2881,    3468,    3255,    3256,    3469
    2880,    3467,    3254,    3255,    3468
    2879,    3466,    3253,    3254,    3467
    2878,    3465,    3252,    3253,    3466
    2877,    3464,    3251,    3252,    3465
    2876,    1000000,    3608,    3251,    3464
    2797,    3091,    3128,    3129,    3092
    3176,    3129,    1909,    1585,    3092
    2799,    3245,    3247,    3130,    3093
    2802,    3095,    3132,    3133,    3096
    2803,    3096,    3133,    3134,    3097
    2806,    3099,    3136,    3137,    3100
    2807,    3100,    3137,    3138,    3101
    2810,    3103,    3140,    3141,    3104
    2811,    3104,    3141,    3142,    3105
    2814,    3107,    3144,    3145,    3108
    2815,    3108,    3145,    3146,    3109
    2818,    3111,    3148,    3149,    3112
    2819,    3112,    3149,    3150,    3113
    3205,    3462,    3127,    3128,    3463
    2822,    3115,    3152,    3153,    3116
    2823,    3116,    3153,    3154,    3117
    3204,    3463,    3128,    3091,    3392
    2826,    3119,    3156,    3157,    3120
    2827,    3120,    3157,    3158,    3121
    2830,    3123,    3160,    3161,    3124
    2831,    3124,    3161,    3162,    3125
    2834,    3127,    3164,    3165,    3128
    2835,    3128,    3165,    3166,    3129
    2949,    3251,    3322,    3323,    3252
    3203,    3247,    1526,    1768,    3130
    3202,    3093,    3130,    1768,    3538
    3201,    3538,    1768,    3132,    3095
    3200,    3132,    1768,    1764,    3133
    3199,    3133,    1764,    1777,    3134
    3198,    3097,    3134,    1777,    3546
    3197,    3546,    1777,    3136,    3099
    3196,    3136,    1777,    1775,    3137
    3195,    3137,    1775,    1714,    3138
    3194,    3101,    3138,    1714,    3554
    3193,    3554,    1714,    3140,    3103
    3192,    3140,    1714,    1732,    3141
    3191,    3141,    1732,    1728,    3142
    3190,    3105,    3142,    1728,    3562
    3189,    3562,    1728,    3144,    3107
    3188,    3144,    1728,    1741,    3145
    3187,    3145,    1741,    1739,    3146
    3186,    3109,    3146,    1739,    3570
    3185,    3570,    1739,    3148,    3111
    3184,    3148,    1739,    1621,    3149
    3183,    3149,    1621,    1939,    3150
    3182,    3150,    1939,    3578,    3113
    3181,    3578,    1939,    3152,    3115
    3180,    3152,    1939,    1935,    3153
    3179,    3153,    1935,    1948,    3154
    3178,    3118,    3117,    3154,    1948
    3175,    3118,    1948,    3156,    3119
    3174,    3156,    1948,    1946,    3157
    3173,    3157,    1946,    1885,    3158
    3172,    3121,    3158,    1885,    3594
    3171,    3594,    1885,    3160,    3123
    3170,    3160,    1885,    1903,    3161
    3169,    3161,    1903,    1899,    3162
    3168,    3162,    1899,    3126,    3125
    3167,    1899,    1912,    3165,    3164
    3166,    3126,    1899,    3164,    3127
    2948,    3608,    3610,    3322,    3251
    2950,    3252,    3323,    3324,    3253
    2951,    3253,    3324,    3325,    3254
    2952,    3254,    3325,    3326,    3255
    2953,    3255,    3326,    3327,    3256
    2954,    3256,    3327,    3328,    3257
    2955,    3257,    3328,    3329,    3258
    2956,    3258,    3329,    3330,    3259
    2957,    3259,    3330,    3331,    3260
    2958,    3260,    3331,    3332,    3261
    2959,    3261,    3332,    3333,    3262
    2960,    3262,    3333,    3334,    3263
    2961,    3263,    3334,    3335,    3264
    2962,    3264,    3335,    3336,    3265
    2963,    3265,    3336,    3337,    3266
    2964,    3266,    3337,    3338,    3267
    2965,    3267,    3338,    3339,    3268
    2966,    3268,    3339,    3340,    3269
    2967,    3269,    3340,    3341,    3270
    2968,    3270,    3341,    3342,    3271
    2969,    3271,    3342,    3343,    3272
    2970,    3272,    3343,    3344,    3273
    2971,    3273,    3344,    3345,    3274
    2972,    3274,    3345,    3346,    3275
    2973,    3275,    3346,    3347,    3276
    2974,    3276,    3347,    3348,    3277
    2975,    3277,    3348,    3349,    3278
    2976,    3278,    3349,    3350,    3279
    2977,    3279,    3350,    3351,    3280
    2978,    3280,    3351,    3352,    3281
    2979,    3281,    3352,    3353,    3282
    2980,    3282,    3353,    3354,    3283
    2981,    3283,    3354,    3355,    3284
    2982,    3284,    3355,    3356,    3285
    2983,    3285,    3356,    3357,    3286
    2984,    3286,    3357,    3358,    3287
    2985,    3287,    3358,    3359,    3288
    2986,    3288,    3359,    3360,    3289
    2987,    3289,    3360,    3361,    3290
    2988,    3290,    3361,    3362,    3291
    2989,    3291,    3362,    3363,    3292
    2990,    3292,    3363,    3364,    3293
    2991,    3293,    3364,    3365,    3294
    2992,    3294,    3365,    3366,    3295
    2993,    3295,    3366,    3367,    3296
    2994,    3296,    3367,    3368,    3297
    2995,    3297,    3368,    3369,    3298
    2996,    3298,    3369,    3370,    3299
    2997,    3299,    3370,    3371,    3300
    2998,    3300,    3371,    3372,    3301
    2999,    3301,    3372,    3373,    3302
    3000,    3302,    3373,    3374,    3303
    3001,    3303,    3374,    3375,    3304
    3002,    3304,    3375,    3376,    3305
    3003,    3305,    3376,    3377,    3306
    3004,    3306,    3377,    3378,    3307
    3005,    3307,    3378,    3379,    3308
    3006,    3308,    3379,    3380,    3309
    3007,    3309,    3380,    3381,    3310
    3008,    3310,    3381,    3382,    3311
    3009,    3311,    3382,    3383,    3312
    3010,    3312,    3383,    3384,    3313
    3011,    3313,    3384,    3385,    3314
    3012,    3314,    3385,    3386,    3315
    3013,    3315,    3386,    3387,    3316
    3014,    3316,    3387,    3388,    3317
    3015,    3317,    3388,    3389,    3318
    3016,    3318,    3389,    3390,    3319
    3017,    3319,    3390,    3391,    3320
    3018,    3320,    3391,    3392,    3321
    3206,    3392,    3091,    3607,    3321
    3021,    3322,    3393,    3394,    3323
    3022,    3323,    3394,    3395,    3324
    3025,    3326,    3397,    3398,    3327
    3026,    3327,    3398,    3399,    3328
    3029,    3330,    3401,    3402,    3331
    3030,    3331,    3402,    3403,    3332
    3033,    3334,    3405,    3406,    3335
    3034,    3335,    3406,    3407,    3336
    3037,    3338,    3409,    3410,    3339
    3038,    3339,    3410,    3411,    3340
    3041,    3342,    3413,    3414,    3343
    3042,    3343,    3414,    3415,    3344
    3045,    3346,    3417,    3418,    3347
    3046,    3347,    3418,    3419,    3348
    3049,    3350,    3421,    3422,    3351
    3050,    3351,    3422,    3423,    3352
    3053,    3354,    3425,    3426,    3355
    3054,    3355,    3426,    3427,    3356
    3057,    3358,    3429,    3430,    3359
    3058,    3359,    3430,    3431,    3360
    3061,    3362,    3433,    3434,    3363
    3062,    3363,    3434,    3435,    3364
    3065,    3366,    3437,    3438,    3367
    3066,    3367,    3438,    3439,    3368
    3069,    3370,    3441,    3442,    3371
    3070,    3371,    3442,    3443,    3372
    3073,    3374,    3445,    3446,    3375
    3074,    3375,    3446,    3447,    3376
    3077,    3378,    3449,    3450,    3379
    3078,    3379,    3450,    3451,    3380
    3081,    3382,    3453,    3454,    3383
    3082,    3383,    3454,    3455,    3384
    3085,    3386,    3457,    3458,    3387
    3086,    3387,    3458,    3459,    3388
    3089,    3390,    3461,    3462,    3391
    3090,    3391,    3462,    3463,    3392
    3277,    3610,    3245,    3393,    3322
    3276,    3393,    3245,    3093,    3394
    3275,    3394,    3093,    3538,    3395
    3274,    3324,    3395,    3538,    3325
    3273,    3325,    3538,    3397,    3326
    3272,    3397,    3538,    3095,    3398
    3271,    3398,    3095,    3096,    3399
    3270,    3328,    3399,    3096,    3329
    3269,    3329,    3096,    3401,    3330
    3268,    3401,    3096,    3097,    3402
    3267,    3402,    3097,    3546,    3403
    3266,    3332,    3403,    3546,    3333
    3265,    3333,    3546,    3405,    3334
    3264,    3405,    3546,    3099,    3406
    3263,    3406,    3099,    3100,    3407
    3262,    3336,    3407,    3100,    3337
    3261,    3337,    3100,    3409,    3338
    3260,    3409,    3100,    3101,    3410
    3259,    3410,    3101,    3554,    3411
    3258,    3340,    3411,    3554,    3341
    3257,    3341,    3554,    3413,    3342
    3256,    3413,    3554,    3103,    3414
    3255,    3414,    3103,    3104,    3415
    3254,    3344,    3415,    3104,    3345
    3253,    3345,    3104,    3417,    3346
    3252,    3417,    3104,    3105,    3418
    3251,    3418,    3105,    3562,    3419
    3250,    3348,    3419,    3562,    3349
    3249,    3349,    3562,    3421,    3350
    3248,    3421,    3562,    3107,    3422
    3247,    3422,    3107,    3108,    3423
    3246,    3352,    3423,    3108,    3353
    3245,    3353,    3108,    3425,    3354
    3244,    3425,    3108,    3109,    3426
    3243,    3426,    3109,    3570,    3427
    3242,    3356,    3427,    3570,    3357
    3241,    3357,    3570,    3429,    3358
    3240,    3429,    3570,    3111,    3430
    3239,    3430,    3111,    3112,    3431
    3238,    3360,    3431,    3112,    3361
    3237,    3361,    3112,    3433,    3362
    3236,    3433,    3112,    3113,    3434
    3235,    3434,    3113,    3578,    3435
    3234,    3364,    3435,    3578,    3365
    3233,    3365,    3578,    3437,    3366
    3232,    3437,    3578,    3115,    3438
    3231,    3438,    3115,    3116,    3439
    3230,    3368,    3439,    3116,    3369
    3229,    3369,    3116,    3441,    3370
    3228,    3441,    3116,    3117,    3442
    3227,    3442,    3117,    3118,    3443
    3226,    3372,    3443,    3118,    3373
    3225,    3373,    3118,    3445,    3374
    3224,    3445,    3118,    3119,    3446
    3223,    3446,    3119,    3120,    3447
    3222,    3376,    3447,    3120,    3377
    3221,    3377,    3120,    3449,    3378
    3220,    3449,    3120,    3121,    3450
    3219,    3450,    3121,    3594,    3451
    3218,    3380,    3451,    3594,    3381
    3217,    3382,    3381,    3594,    3453
    3216,    3454,    3453,    3594,    3123
    3215,    3454,    3123,    3124,    3455
    3214,    3384,    3455,    3124,    3385
    3213,    3124,    3125,    3458,    3457
    3212,    3386,    3385,    3124,    3457
    3211,    3458,    3125,    3126,    3459
    3210,    3388,    3459,    3126,    3389
    3209,    3461,    3390,    3389,    3126
    3208,    3462,    3461,    3126,    3127
    3164,    3166,    1910,    1909,    3129
    3165,    3165,    1912,    1910,    3166
    4215,    4731,    4730,    4732,    4734
    4438,    4964,    4963,    4957,    4956
    4193,    4679,    4674,    4673,    4675
    4194,    4652,    4653,    4679,    4680
    4144,    4618,    4619,    4639,    4644
    4145,    4644,    4639,    4638,    4640
    3910,    4412,    4411,    1553,    1552
    3909,    4403,    4412,    1552,    1551
    4112,    4520,    4524,    1583,    1582
    4113,    4524,    4520,    4487,    4486
    4195,    4680,    4679,    4675,    4676
    4437,    4960,    4964,    4956,    4955
    4196,    4594,    4652,    4680,    4595
    4218,    4701,    4700,    4736,    4735
    4197,    4595,    4680,    4676,    4596
    4219,    4700,    4699,    4728,    4736
    4146,    4617,    4618,    4644,    4645
    4147,    4645,    4644,    4640,    4641
    4148,    4613,    4617,    4645,    4614
    4149,    4614,    4645,    4641,    4615
    4198,    4681,    4615,    4616,    4683
    4220,    4735,    4736,    4729,    4730
    4458,    5007,    4980,    4913,    4914
    4221,    4736,    4728,    4727,    4729
    4462,    5009,    5008,    4916,    4917
    4461,    4985,    4984,    5008,    5009
    4152,    4647,    4646,    4648,    4649
    3889,    1548,    1547,    4400,    4399
    4460,    5008,    5006,    4915,    4916
    3887,    1549,    1548,    4399,    4388
    4457,    5006,    5007,    4914,    4915
    4436,    4904,    4905,    4963,    4964
    4456,    4982,    4981,    4980,    5007
    4435,    4903,    4904,    4964,    4960
    4428,    4833,    4912,    4774,    4829
    4570,    5098,    5097,    5137,    5133
    4154,    4638,    4647,    4649,    4637
    3879,    1545,    1544,    4356,    4394
    4561,    5125,    5129,    5130,    5126
    4156,    4621,    4574,    4573,    4650
    4225,    4737,    4735,    4730,    4731
    4226,    4739,    4738,    4742,    4741
    4179,    4669,    4668,    4656,    4655
    4180,    4373,    4371,    4610,    4670
    3917,    1556,    1555,    4421,    4418
    4111,    4530,    4520,    1582,    1581
    4110,    4525,    4520,    4530,    4529
    4109,    4518,    4534,    4525,    4529
    4439,    4902,    4903,    4960,    4966
    4192,    4653,    4654,    4674,    4679
    4213,    4733,    4726,    4722,    4721
    4212,    4732,    4733,    4721,    4720
    4423,    4931,    4932,    4828,    4808
    4424,    4828,    4932,    4823,    4824
    4108,    4534,    4518,    1579,    1578
    4107,    4533,    4534,    1578,    1577
    4106,    4538,    4534,    4533,    4542
    4105,    4541,    4514,    4538,    4542
    3931,    1557,    1556,    4418,    4427
    4104,    4514,    4541,    1575,    1574
    4211,    4729,    4727,    4726,    4733
    4189,    4676,    4675,    4677,    4678
    4210,    4730,    4729,    4733,    4732
    4425,    4932,    4822,    4821,    4823
    3937,    1561,    1560,    4433,    4430
    4103,    4551,    4514,    1574,    1573
    3939,    1560,    1559,    4415,    4433
    4102,    4547,    4514,    4551,    4548
    4209,    4686,    4685,    4681,    4682
    4426,    4822,    4932,    4933,    4834
    4208,    4674,    4686,    4682,    4673
    4207,    4655,    4656,    4685,    4686
    4186,    4675,    4673,    4672,    4677
    4185,    4671,    4670,    4666,    4667
    3947,    1564,    1563,    4438,    4382
    4097,    4560,    4565,    4561,    4563
    4101,    4557,    4552,    4547,    4548
    4100,    4552,    4557,    1571,    1570
    4099,    4545,    4552,    1570,    1569
    4098,    4563,    4561,    4552,    4545
    4096,    4565,    4560,    1567,    1566
    3954,    4382,    4460,    4443,    1564
    4095,    4568,    4565,    1566,    1565
    4094,    4443,    4511,    4565,    4568
    4178,    4657,    4669,    4655,    4654
    4177,    4667,    4666,    4668,    4669
    4093,    4390,    4394,    4356,    4357
    4092,    1546,    1545,    4394,    4390
    4184,    4659,    4671,    4667,    4658
    4183,    4375,    4373,    4670,    4671
    4206,    4654,    4655,    4686,    4674
    4205,    4685,    4614,    4615,    4681
    4182,    4377,    4375,    4671,    4659
    4181,    4670,    4610,    4611,    4666
    4204,    4656,    4613,    4614,    4685
    4427,    4933,    4912,    4833,    4834
    4091,    4400,    1547,    1546,    4390
    4090,    4395,    4399,    4400,    4390
    4176,    4658,    4667,    4669,    4657
    4175,    4668,    4612,    4613,    4656
    4463,    4986,    4985,    5009,    5005
    4142,    4615,    4641,    4643,    4616
    3975,    1583,    4524,    4486,    1584
    4464,    5005,    5009,    4917,    4918
    4174,    4666,    4611,    4612,    4668
    4089,    4388,    4399,    4395,    4404
    4173,    4665,    4664,    4660,    4661
    4088,    4404,    1550,    1549,    4388
    4172,    4591,    4665,    4661,    4592
    4087,    4403,    1551,    1550,    4404
    3983,    1579,    4518,    4529,    1580
    4560,    5100,    5099,    5129,    5125
    3985,    1580,    4529,    4530,    1581
    4466,    5011,    5005,    4918,    4919
    4559,    5124,    5128,    5192,    5190
    4137,    4636,    4635,    4631,    4632
    4171,    4450,    4448,    4664,    4665
    4086,    4412,    4403,    4404,    4408
    4170,    4452,    4450,    4665,    4591
    4085,    4411,    4412,    4408,    4384
    4136,    4624,    4636,    4632,    4623
    4135,    4363,    4361,    4635,    4636
    4134,    4365,    4363,    4636,    4624
    4133,    4635,    4577,    4576,    4631
    4169,    4664,    4659,    4658,    4660
    4084,    4384,    1554,    1553,    4411
    4168,    4448,    4377,    4659,    4664
    4083,    4421,    1555,    1554,    4384
    4167,    4663,    4662,    4653,    4652
    4082,    4417,    4418,    4421,    4384
    4132,    4361,    4359,    4577,    4635
    4131,    4634,    4633,    4621,    4620
    4005,    4533,    1577,    1576,    4542
    4006,    4542,    1576,    1575,    4541
    4130,    4622,    4634,    4620,    4619
    4129,    4632,    4631,    4633,    4634
    4081,    4427,    4418,    4417,    4422
    4080,    4422,    1558,    1557,    4427
    4166,    4593,    4663,    4652,    4594
    4165,    4661,    4660,    4662,    4663
    4013,    1572,    4548,    4551,    1573
    4128,    4623,    4632,    4634,    4622
    4127,    4633,    4575,    4574,    4621
    4126,    4631,    4576,    4575,    4633
    4164,    4592,    4661,    4663,    4593
    4079,    4415,    1559,    1558,    4422
    4163,    4662,    4657,    4654,    4653
    4162,    4660,    4658,    4657,    4662
    4078,    4431,    4433,    4415,    4422
    4077,    4430,    4433,    4431,    4435
    4125,    4610,    4630,    4626,    4611
    4124,    4371,    4369,    4630,    4610
    4123,    4630,    4629,    4625,    4626
    4122,    4369,    4367,    4629,    4630
    4027,    1571,    4557,    4548,    1572
    4121,    4629,    4624,    4623,    4625
    4161,    4639,    4651,    4647,    4638
    4076,    4435,    1562,    1561,    4430
    4160,    4619,    4620,    4651,    4639
    4075,    4438,    1563,    1562,    4435
    4033,    1567,    4560,    4563,    1568
    4120,    4367,    4365,    4624,    4629
    4035,    1568,    4563,    4545,    1569
    4119,    4612,    4628,    4617,    4613
    4159,    4651,    4650,    4646,    4647
    4074,    4382,    4438,    4435,    4446
    4158,    4620,    4621,    4650,    4651
    4157,    4650,    4573,    4572,    4646
    4073,    4460,    4457,    4511,    4443
    4072,    4460,    4382,    4446,    4457
    4043,    1564,    4443,    4568,    1565
    4118,    4611,    4626,    4628,    4612
    4117,    4628,    4627,    4618,    4617
    4116,    4626,    4625,    4627,    4628
    4115,    4627,    4622,    4619,    4618
    4114,    4625,    4623,    4622,    4627
    4049,    4357,    4359,    4361,    4390
    4050,    4390,    4361,    4363,    4395
    4051,    4395,    4363,    4365,    4404
    4052,    4404,    4365,    4367,    4408
    4053,    4408,    4367,    4369,    4384
    4054,    4384,    4369,    4371,    4417
    4055,    4417,    4371,    4373,    4422
    4056,    4422,    4373,    4375,    4431
    4057,    4431,    4375,    4377,    4435
    4058,    4435,    4377,    4448,    4446
    4059,    4446,    4448,    4450,    4457
    4060,    4457,    4450,    4452,    4454
    4061,    4487,    4520,    4491,    4489
    4062,    4520,    4525,    4493,    4491
    4063,    4525,    4534,    4495,    4493
    4064,    4534,    4538,    4497,    4495
    4065,    4538,    4514,    4499,    4497
    4066,    4514,    4547,    4501,    4499
    4067,    4547,    4552,    4503,    4501
    4068,    4552,    4561,    4505,    4503
    4069,    4561,    4565,    4507,    4505
    4070,    4565,    4511,    4509,    4507
    4071,    4511,    4457,    4454,    4509
    4227,    4738,    4592,    4593,    4742
    4228,    4741,    4742,    4725,    4724
    4229,    4742,    4593,    4594,    4725
    4230,    4727,    4740,    4743,    4726
    4231,    4740,    4739,    4741,    4743
    4232,    4726,    4743,    4723,    4722
    4233,    4743,    4741,    4724,    4723
    4234,    4696,    4452,    4591,    4745
    4235,    4745,    4591,    4592,    4738
    4236,    4697,    4696,    4745,    4744
    4237,    4744,    4745,    4738,    4739
    4238,    4699,    4698,    4746,    4728
    4239,    4698,    4697,    4744,    4746
    4240,    4728,    4746,    4740,    4727
    4241,    4746,    4744,    4739,    4740
    4242,    4753,    4751,    4750,    4754
    4422,    4868,    4930,    4931,    4808
    4421,    4930,    4868,    4864,    4865
    4420,    4857,    4930,    4865,    4856
    4246,    4751,    4753,    4755,    4752
    4433,    4905,    4906,    4961,    4963
    4432,    4962,    4935,    4934,    4959
    4571,    5133,    5137,    5138,    5134
    4419,    4929,    4930,    4857,    4862
    4418,    4863,    4928,    4929,    4862
    4252,    4751,    4756,    4757,    4750
    4417,    4928,    4863,    4859,    4701
    4254,    4721,    4722,    4749,    4758
    4255,    4758,    4749,    4748,    4756
    4256,    4720,    4721,    4758,    4752
    4257,    4752,    4758,    4756,    4751
    4258,    4762,    4760,    4759,    4763
    4416,    4737,    4928,    4701,    4735
    4415,    4927,    4928,    4737,    4731
    4414,    4734,    4926,    4927,    4731
    4262,    4723,    4724,    4761,    4764
    4263,    4764,    4761,    4760,    4762
    4264,    4722,    4723,    4764,    4749
    4265,    4749,    4764,    4762,    4748
    4413,    4926,    4734,    4732,    4720
    4412,    4755,    4926,    4720,    4752
    4268,    4760,    4765,    4766,    4759
    4411,    4753,    4925,    4926,    4755
    4270,    4725,    4594,    4595,    4767
    4271,    4767,    4595,    4596,    4765
    4272,    4724,    4725,    4767,    4761
    4273,    4761,    4767,    4765,    4760
    4274,    4823,    4821,    4820,    4825
    4275,    4825,    4820,    4817,    4816
    4276,    4809,    4824,    4826,    4810
    4277,    4824,    4823,    4825,    4826
    4278,    4810,    4826,    4815,    4811
    4279,    4826,    4825,    4816,    4815
    4562,    5126,    5130,    5131,    5127
    4454,    4978,    4948,    4970,    4977
    4453,    4975,    4978,    4977,    4976
    4452,    4973,    4910,    4948,    4978
    4451,    4974,    4973,    4978,    4975
    4285,    4808,    4828,    4824,    4809
    4286,    4829,    4774,    4773,    4831
    4287,    4831,    4773,    4772,    4819
    4288,    4821,    4830,    4832,    4820
    4289,    4830,    4829,    4831,    4832
    4290,    4820,    4832,    4818,    4817
    4291,    4832,    4831,    4819,    4818
    4566,    5129,    5133,    5134,    5130
    4567,    5130,    5134,    5135,    5131
    4448,    4898,    4899,    4968,    4969
    4295,    4834,    4833,    4829,    4830
    4447,    4910,    4898,    4969,    4948
    4297,    4822,    4834,    4830,    4821
    4298,    4838,    4836,    4835,    4840
    4299,    4840,    4835,    4495,    4497
    4300,    4839,    4838,    4840,    4841
    4301,    4841,    4840,    4497,    4499
    4302,    4813,    4839,    4841,    4814
    4303,    4814,    4841,    4499,    4501
    4304,    4816,    4817,    4837,    4842
    4305,    4842,    4837,    4836,    4838
    4306,    4815,    4816,    4842,    4843
    4307,    4843,    4842,    4838,    4839
    4308,    4811,    4815,    4843,    4812
    4309,    4812,    4843,    4839,    4813
    4310,    4844,    4770,    4769,    4846
    4311,    4846,    4769,    4489,    4491
    4312,    4836,    4845,    4847,    4835
    4313,    4845,    4844,    4846,    4847
    4314,    4835,    4847,    4493,    4495
    4315,    4847,    4846,    4491,    4493
    4316,    4819,    4772,    4771,    4848
    4317,    4848,    4771,    4770,    4844
    4318,    4818,    4819,    4848,    4849
    4319,    4849,    4848,    4844,    4845
    4320,    4817,    4818,    4849,    4837
    4321,    4837,    4849,    4845,    4836
    4322,    4858,    4856,    4855,    4860
    4323,    4860,    4855,    4852,    4851
    4324,    4701,    4859,    4861,    4700
    4325,    4859,    4858,    4860,    4861
    4326,    4700,    4861,    4850,    4699
    4327,    4861,    4860,    4851,    4850
    4446,    4968,    4965,    4952,    4951
    4329,    4862,    4857,    4856,    4858
    4430,    4907,    4886,    4935,    4962
    4445,    4899,    4900,    4965,    4968
    4429,    4906,    4907,    4962,    4961
    4333,    4863,    4862,    4858,    4859
    4334,    4864,    4809,    4810,    4866
    4335,    4866,    4810,    4811,    4854
    4336,    4865,    4864,    4866,    4867
    4337,    4867,    4866,    4854,    4853
    4338,    4856,    4865,    4867,    4855
    4339,    4855,    4867,    4853,    4852
    4568,    5131,    5135,    5136,    5132
    4341,    4868,    4808,    4809,    4864
    4443,    4965,    4967,    4953,    4952
    4442,    4901,    4902,    4966,    4967
    4441,    4900,    4901,    4967,    4965
    4569,    5132,    5136,    5196,    5194
    4346,    4873,    4871,    4870,    4875
    4347,    4875,    4870,    4507,    4509
    4348,    4697,    4874,    4876,    4696
    4349,    4874,    4873,    4875,    4876
    4350,    4696,    4876,    4454,    4452
    4351,    4876,    4875,    4509,    4454
    4352,    4851,    4852,    4872,    4877
    4353,    4877,    4872,    4871,    4873
    4354,    4850,    4851,    4877,    4878
    4355,    4878,    4877,    4873,    4874
    4356,    4699,    4850,    4878,    4698
    4357,    4698,    4878,    4874,    4697
    4358,    4879,    4813,    4814,    4881
    4359,    4881,    4814,    4501,    4503
    4360,    4871,    4880,    4882,    4870
    4361,    4880,    4879,    4881,    4882
    4362,    4870,    4882,    4505,    4507
    4363,    4882,    4881,    4503,    4505
    4364,    4854,    4811,    4812,    4883
    4365,    4883,    4812,    4813,    4879
    4366,    4852,    4853,    4884,    4872
    4367,    4853,    4854,    4883,    4884
    4368,    4872,    4884,    4880,    4871
    4369,    4884,    4883,    4879,    4880
    4370,    4886,    4907,    4608,    4887
    4371,    4907,    4906,    4606,    4608
    4372,    4906,    4905,    4604,    4606
    4373,    4905,    4904,    4602,    4604
    4374,    4904,    4903,    4600,    4602
    4375,    4903,    4902,    4598,    4600
    4376,    4902,    4901,    4894,    4598
    4377,    4901,    4900,    4895,    4894
    4378,    4900,    4899,    4896,    4895
    4379,    4899,    4898,    4897,    4896
    4380,    4897,    4898,    4910,    4911
    4381,    4912,    4933,    4914,    4913
    4382,    4933,    4932,    4915,    4914
    4383,    4932,    4931,    4916,    4915
    4384,    4931,    4930,    4917,    4916
    4385,    4930,    4929,    4918,    4917
    4386,    4929,    4928,    4919,    4918
    4387,    4928,    4927,    4920,    4919
    4388,    4927,    4926,    4921,    4920
    4389,    4926,    4925,    4922,    4921
    4390,    4925,    4897,    4911,    4922
    4391,    4754,    4750,    4896,    4897
    4392,    4754,    4897,    4925,    4753
    4393,    4750,    4757,    4895,    4896
    4394,    4757,    4756,    4748,    4895
    4395,    4895,    4748,    4762,    4763
    4396,    4763,    4759,    4894,    4895
    4397,    4894,    4759,    4766,    4598
    4398,    4766,    4765,    4596,    4598
    4399,    4598,    4596,    4676,    4678
    4400,    4678,    4677,    4600,    4598
    4401,    4600,    4677,    4672,    4602
    4402,    4672,    4673,    4682,    4602
    4403,    4602,    4682,    4681,    4683
    4404,    4683,    4616,    4604,    4602
    4405,    4604,    4616,    4643,    4606
    4406,    4643,    4641,    4640,    4606
    4407,    4606,    4640,    4638,    4637
    4408,    4637,    4649,    4608,    4606
    4409,    4608,    4649,    4648,    4887
    4410,    4648,    4646,    4572,    4887
    4468,    5012,    5011,    4919,    4920
    4469,    4989,    4988,    5012,    5010
    4470,    5010,    5012,    4920,    4921
    4471,    4990,    4989,    5010,    5013
    4472,    5013,    5010,    4921,    4922
    4558,    5123,    5127,    5128,    5124
    4557,    5122,    5126,    5127,    5123
    4475,    4973,    5014,    4911,    4910
    4476,    5014,    5013,    4922,    4911
    4565,    5099,    5098,    5133,    5129
    4564,    5128,    5132,    5194,    5192
    4563,    5127,    5131,    5132,    5128
    4544,    4982,    5050,    5048,    4981
    4543,    5050,    4982,    5007,    5006
    4542,    4984,    5050,    5006,    5008
    4541,    5052,    5050,    4984,    4985
    4540,    4986,    5054,    5052,    4985
    4539,    5054,    4986,    5005,    5011
    4538,    4988,    5054,    5011,    5012
    4537,    5056,    5054,    4988,    4989
    4536,    4990,    5058,    5056,    4989
    4535,    5058,    4990,    5013,    5014
    4534,    4974,    5058,    5014,    4973
    4556,    5121,    5125,    5126,    5122
    4555,    5101,    5100,    5125,    5121
    4554,    5120,    5124,    5190,    5188
    4553,    5119,    5123,    5124,    5120
    4552,    5118,    5122,    5123,    5119
    4551,    5117,    5121,    5122,    5118
    4550,    5102,    5101,    5121,    5117
    4549,    5180,    5120,    5188,    5186
    4548,    5179,    5119,    5120,    5180
    4547,    5178,    5118,    5119,    5179
    4546,    5177,    5117,    5118,    5178
    4545,    5103,    5102,    5117,    5177
    4533,    4975,    5060,    5058,    4974
    4504,    5075,    5090,    5077,    5076
    4505,    5090,    5089,    5078,    5077
    4506,    5089,    5088,    5079,    5078
    4507,    5088,    5087,    5080,    5079
    4508,    5087,    5086,    5081,    5080
    4509,    5086,    5085,    5082,    5081
    4510,    5085,    5084,    5083,    5082
    4511,    5084,    5094,    5093,    5083
    4512,    5083,    5093,    5097,    5060
    4513,    5060,    5097,    5098,    5058
    4514,    5058,    5098,    5099,    5056
    4515,    5056,    5099,    5100,    5054
    4516,    5054,    5100,    5101,    5052
    4517,    5052,    5101,    5102,    5050
    4518,    5050,    5102,    5103,    5048
    4519,    5083,    4976,    4977,    5082
    4520,    4976,    5083,    5060,    4975
    4521,    4977,    4970,    5081,    5082
    4522,    4970,    4948,    4969,    5081
    4523,    5081,    4969,    4968,    4951
    4524,    4951,    4952,    5080,    5081
    4525,    5080,    4952,    4953,    5079
    4526,    4953,    4967,    4966,    5079
    4527,    5079,    4966,    4960,    4955
    4528,    4955,    4956,    5078,    5079
    4529,    5078,    4956,    4957,    5077
    4530,    4957,    4963,    4961,    5077
    4531,    5077,    4961,    4962,    4959
    4532,    4959,    4934,    5076,    5077
    4572,    5134,    5138,    5139,    5135
    4573,    5135,    5139,    5140,    5136
    4574,    5136,    5140,    5198,    5196
    4575,    5097,    5093,    5141,    5137
    4576,    5137,    5141,    5142,    5138
    4577,    5138,    5142,    5143,    5139
    4578,    5139,    5143,    5144,    5140
    4579,    5140,    5144,    5200,    5198
    4580,    5093,    5094,    5145,    5141
    4581,    5141,    5145,    5146,    5142
    4582,    5142,    5146,    5147,    5143
    4583,    5143,    5147,    5148,    5144
    4584,    5144,    5148,    5202,    5200
    4585,    5094,    5084,    5149,    5145
    4586,    5145,    5149,    5150,    5146
    4587,    5146,    5150,    5151,    5147
    4588,    5147,    5151,    5152,    5148
    4589,    5148,    5152,    5204,    5202
    4590,    5084,    5085,    5153,    5149
    4591,    5149,    5153,    5154,    5150
    4592,    5150,    5154,    5155,    5151
    4593,    5151,    5155,    5156,    5152
    4594,    5152,    5156,    5206,    5204
    4595,    5085,    5086,    5157,    5153
    4596,    5153,    5157,    5158,    5154
    4597,    5154,    5158,    5159,    5155
    4598,    5155,    5159,    5160,    5156
    4599,    5156,    5160,    5208,    5206
    4600,    5086,    5087,    5161,    5157
    4601,    5157,    5161,    5162,    5158
    4602,    5158,    5162,    5163,    5159
    4603,    5159,    5163,    5164,    5160
    4604,    5160,    5164,    5210,    5208
    4605,    5087,    5088,    5165,    5161
    4606,    5161,    5165,    5166,    5162
    4607,    5162,    5166,    5167,    5163
    4608,    5163,    5167,    5168,    5164
    4609,    5164,    5168,    5212,    5210
    4610,    5088,    5089,    5169,    5165
    4611,    5165,    5169,    5170,    5166
    4612,    5166,    5170,    5171,    5167
    4613,    5167,    5171,    5172,    5168
    4614,    5168,    5172,    5214,    5212
    4615,    5089,    5090,    5173,    5169
    4616,    5169,    5173,    5174,    5170
    4617,    5170,    5174,    5175,    5171
    4618,    5171,    5175,    5176,    5172
    4619,    5172,    5176,    5216,    5214
    4620,    5090,    5075,    5181,    5173
    4621,    5173,    5181,    5182,    5174
    4622,    5174,    5182,    5183,    5175
    4623,    5175,    5183,    5184,    5176
    4624,    5176,    5184,    5218,    5216
*ELSET, ELSET=specimen_contact
    3207,    2945,    2944,    2943,    2942,    2941,    2940,    2939,
    2938,    2937,    2936,    2935,    2934,    1681,    2933,    2932,
    2931,    2930,    2929,    2928,    2927,    2926,    2925,    2924,
    2923,    2922,    2921,    2920,    2919,    2918,    2917,    2916,
    2915,    2914,    2913,    2912,    3177,    2911,    2910,    2909,
    2908,    2907,    2906,    2905,    2904,    2903,    2902,    2901,
    2900,    2899,    2898,    2897,    2896,    2895,    2894,    2893,
    2892,    2891,    2890,    2889,    2888,    2887,    2886,    2885,
    2884,    2883,    2882,    2881,    2880,    2879,    2878,    2877,
    2876,    3176,    3206
*NSET, NSET=specimen_nodes
    3464,    3465,    3466,    3467,    3468,    3469,    3470,    3471,
    3472,    3473,    3474,    3475,    3476,    3477,    3478,    3479,
    3480,    3481,    3482,    3483,    3484,    3485,    3486,    3487,
    3488,    3489,    3490,    3491,    3492,    3493,    3494,    3495,
    3496,    3497,    3498,    3499,    3500,    3501,    3502,    3503,
    3504,    3505,    3506,    3507,    3508,    3509,    3510,    3511,
    3512,    3513,    3514,    3515,    3516,    3517,    3518,    3519,
    3520,    3521,    3522,    3523,    3524,    3525,    3526,    3527,
    3528,    3529,    3530,    3531,    3532,    3533,    1000000,    3607
*NSET, NSET=specimen_left
    1526,    1527,    1528,    1529,    1530,    1531,    1532,    1533,
    1534,    1535,    1536,    1537,    1538,    1539,    1540,    1541,
    1542,    1543,    1544,    4574,    4575,    4576,    5076,    5075,
    4577,    4356,    4357,    4359,    4887,    4886,    3245,    3247,
    1000000,    3608,    3610,    4934,    4935,    4572,    4573,    5181,
    5182,    5183,    5184,    5218
*NSET, NSET=specimen_bottom
    5202,    5204,    5206,    5208,    5210,    5212,    5214,    5216,
    5218,
